#=======================================================
# FHI-aims file: geometry.in
# Created using the Atomic Simulation Environment (ASE)
# Mon May 20 17:49:12 2024
#=======================================================
lattice_vector 7.0729953411670001 0.0000000000000000 0.0000000000000000 
lattice_vector 0.0000000000000000 9.9271370448089993 0.0000000000000000 
lattice_vector 0.0000000000000000 0.0000000000000000 6.9499392683789996 
atom_frac 0.0505850122330001 0.7634222226726479 0.0111641606949998 Ba
atom_frac 0.9494149877670001 0.2634222226726480 0.9888358393050002 Ba
atom_frac 0.5505850122330009 0.7634222226726477 0.4888358393050005 Ba
atom_frac 0.4494149877670007 0.2634222226726479 0.5111641606949995 Ba
atom_frac 0.5231328650660986 0.9614990683459419 0.9832514392006914 Zr
atom_frac 0.4768671349339016 0.4614990683459420 0.0167485607993085 Zr
atom_frac 0.0231328650660986 0.9614990683459421 0.5167485607993085 Zr
atom_frac 0.9768671349339016 0.4614990683459421 0.4832514392006912 Zr
atom_frac 0.7132088382711859 0.0547045108667549 0.7020941399411073 S
atom_frac 0.7063932403208136 0.4877664656567545 0.7170132073268919 S
atom_frac 0.2936067596791868 0.9877664656567547 0.2829867926731083 S
atom_frac 0.2867911617288143 0.5547045108667545 0.2979058600588927 S
atom_frac 0.7936067596791867 0.9877664656567545 0.2170132073268918 S
atom_frac 0.7867911617288142 0.5547045108667547 0.2020941399411071 S
atom_frac 0.2132088382711858 0.0547045108667550 0.7979058600588931 S
atom_frac 0.2063932403208135 0.4877664656567545 0.7829867926731083 S
atom_frac 0.4945594743009996 0.7543815359406201 0.9363035490960006 S
atom_frac 0.5054405256990007 0.2543815359406202 0.0636964509040000 S
atom_frac 0.9945594743010001 0.7543815359406201 0.5636964509039992 S
atom_frac 0.0054405256990000 0.2543815359406202 0.4363035490960008 S
