#=======================================================
# FHI-aims file: geometry.in
# Created using the Atomic Simulation Environment (ASE)
# Mon May 20 17:49:17 2024
#=======================================================
lattice_vector 7.0729953411670001 0.0000000000000000 0.0000000000000000 
lattice_vector 0.0000000000000000 9.9271370448089993 0.0000000000000000 
lattice_vector 0.0000000000000000 0.0000000000000000 6.9499392683789996 
atom_frac 0.0505850122330000 0.7365777773273519 0.0111641606950002 Ba
atom_frac 0.9494149877669998 0.2365777773273520 0.9888358393050000 Ba
atom_frac 0.5505850122330006 0.7365777773273520 0.4888358393050006 Ba
atom_frac 0.4494149877670007 0.2365777773273521 0.5111641606949995 Ba
atom_frac 0.4768671349339014 0.0385009316540580 0.0167485607993087 Zr
atom_frac 0.5231328650660984 0.5385009316540580 0.9832514392006915 Zr
atom_frac 0.9768671349339014 0.0385009316540579 0.4832514392006914 Zr
atom_frac 0.0231328650660983 0.5385009316540579 0.5167485607993089 Zr
atom_frac 0.7063932403208133 0.0122335343432450 0.7170132073268919 S
atom_frac 0.7132088382711856 0.4452954891332447 0.7020941399411073 S
atom_frac 0.2867911617288140 0.9452954891332446 0.2979058600588927 S
atom_frac 0.2936067596791864 0.5122335343432445 0.2829867926731083 S
atom_frac 0.7867911617288141 0.9452954891332447 0.2020941399411072 S
atom_frac 0.7936067596791865 0.5122335343432445 0.2170132073268918 S
atom_frac 0.2063932403208135 0.0122335343432450 0.7829867926731082 S
atom_frac 0.2132088382711858 0.4452954891332447 0.7979058600588929 S
atom_frac 0.4945594743009994 0.7456184640593796 0.9363035490960008 S
atom_frac 0.5054405256990004 0.2456184640593798 0.0636964509040001 S
atom_frac 0.9945594743009999 0.7456184640593796 0.5636964509039993 S
atom_frac 0.0054405256990000 0.2456184640593798 0.4363035490960008 S
