#===============================================================================
# Created using the Atomic Simulation Environment (ASE)

# Tue Apr 30 10:51:20 2024

#=======================================================
lattice_vector 7.0710678118654755 0.0000000000000000 0.0000000000000000 
lattice_vector 0.0000000000000000 7.0710678118654755 0.0000000000000000 
lattice_vector 0.0000000000000000 0.0000000000000000 10.0000000000000000 
atom_frac 0.0000000000000000 0.5000000000000000 0.2500000000000000 Ba
atom_frac 0.5000000000000000 0.0000000000000000 0.2500000000000000 Ba
atom_frac 0.0000000000000000 0.0000000000000000 0.0000000000000000 Zr
atom_frac 0.0000000000000000 0.0000000000000000 0.5000000000000000 Zr
atom_frac 0.0000000000000000 0.0000000000000000 0.7500000000000000 S
atom_frac 0.0000000000000000 0.0000000000000000 0.2500000000000000 S
atom_frac 0.1500000000000001 0.3499999999999999 0.5000000000000000 S
atom_frac 0.3499999999999999 0.1500000000000001 0.0000000000000000 S
atom_frac 0.3499999999999999 0.8500000000000000 0.5000000000000000 S
atom_frac 0.1500000000000001 0.6500000000000001 0.0000000000000000 S
atom_frac 0.5000000000000000 0.0000000000000000 0.7500000000000000 Ba
atom_frac 0.0000000000000000 0.5000000000000000 0.7500000000000000 Ba
atom_frac 0.5000000000000000 0.5000000000000000 0.5000000000000000 Zr
atom_frac 0.5000000000000000 0.5000000000000000 0.0000000000000000 Zr
atom_frac 0.5000000000000000 0.5000000000000000 0.2500000000000000 S
atom_frac 0.5000000000000000 0.5000000000000000 0.7500000000000000 S
atom_frac 0.6500000000000001 0.8500000000000000 0.0000000000000000 S
atom_frac 0.8500000000000000 0.6500000000000001 0.5000000000000000 S
atom_frac 0.8500000000000000 0.3499999999999999 0.0000000000000000 S
atom_frac 0.6500000000000001 0.1500000000000001 0.5000000000000000 S
