#=======================================================
# FHI-aims file: BaZrS3_tilt_140/geometry.in
# Created using the Atomic Simulation Environment (ASE)
# Sun Mar 24 13:47:55 2024
#=======================================================
lattice_vector -3.5355339059327378 3.5355339059327378 5.0000000000000000 
lattice_vector 3.5355339059327378 -3.5355339059327378 5.0000000000000000 
lattice_vector 3.5355339059327378 3.5355339059327378 -5.0000000000000000 
atom 0.0000000000000000 3.5355339059327378 2.5000000000000000 Ba
atom 3.5355339059327378 0.0000000000000000 2.5000000000000000 Ba
atom 0.0000000000000000 0.0000000000000000 0.0000000000000000 Zr
atom 0.0000000000000000 0.0000000000000000 5.0000000000000000 Zr
atom 0.0000000000000000 0.0000000000000000 7.5000000000000000 S
atom 0.0000000000000000 0.0000000000000000 2.5000000000000000 S
atom 1.0606601717798221 2.4748737341529159 5.0000000000000000 S
atom 2.4748737341529163 1.0606601717798214 0.0000000000000000 S
atom 2.4748737341529172 -1.0606601717798219 5.0000000000000000 S
atom 1.0606601717798216 4.5961940777125587 -0.0000000000000007 S
