#=======================================================
# FHI-aims file: geometry.in
# Created using the Atomic Simulation Environment (ASE)
# Mon May 20 17:49:13 2024
#=======================================================
lattice_vector 7.0729953411670001 0.0000000000000000 0.0000000000000000 
lattice_vector 0.0000000000000000 9.9271370448089993 0.0000000000000000 
lattice_vector 0.0000000000000000 0.0000000000000000 6.9499392683789996 
atom_frac 0.0505850122330001 0.7570643277224463 0.0111641606949999 Ba
atom_frac 0.9494149877670000 0.2570643277224463 0.9888358393050001 Ba
atom_frac 0.5505850122330008 0.7570643277224461 0.4888358393050005 Ba
atom_frac 0.4494149877670007 0.2570643277224463 0.5111641606949995 Ba
atom_frac 0.5121751921400518 0.9797363517610221 0.9911849680003638 Zr
atom_frac 0.4878248078599483 0.4797363517610221 0.0088150319996361 Zr
atom_frac 0.0121751921400519 0.9797363517610221 0.5088150319996361 Zr
atom_frac 0.9878248078599483 0.4797363517610221 0.4911849680003638 Zr
atom_frac 0.7115946177039923 0.0446455953743447 0.7056276032693194 S
atom_frac 0.7080074608880069 0.4777075501643443 0.7134797439986797 S
atom_frac 0.2919925391119932 0.9777075501643444 0.2865202560013204 S
atom_frac 0.2884053822960077 0.5446455953743441 0.2943723967306806 S
atom_frac 0.7919925391119932 0.9777075501643444 0.2134797439986796 S
atom_frac 0.7884053822960075 0.5446455953743443 0.2056276032693193 S
atom_frac 0.2115946177039923 0.0446455953743447 0.7943723967306807 S
atom_frac 0.2080074608880069 0.4777075501643443 0.7865202560013205 S
atom_frac 0.4945594743009995 0.7523060715476946 0.9363035490960007 S
atom_frac 0.5054405256990007 0.2523060715476949 0.0636964509040000 S
atom_frac 0.9945594743010001 0.7523060715476946 0.5636964509039992 S
atom_frac 0.0054405256990000 0.2523060715476949 0.4363035490960008 S
