#=======================================================
# FHI-aims file: geometry.in
# Created using the Atomic Simulation Environment (ASE)
# Mon May 20 17:49:15 2024
#=======================================================
lattice_vector 7.0729953411670001 0.0000000000000000 0.0000000000000000 
lattice_vector 0.0000000000000000 9.9271370448089993 0.0000000000000000 
lattice_vector 0.0000000000000000 0.0000000000000000 6.9499392683789996 
atom_frac 0.0505850122330000 0.7503532163861222 0.0111641606950000 Ba
atom_frac 0.9494149877670000 0.2503532163861223 0.9888358393050001 Ba
atom_frac 0.5505850122330007 0.7503532163861222 0.4888358393050006 Ba
atom_frac 0.4494149877670007 0.2503532163861223 0.5111641606949995 Ba
atom_frac 0.5006087596070026 0.9989868175880511 0.9995592484000183 Zr
atom_frac 0.4993912403929974 0.4989868175880511 0.0004407515999818 Zr
atom_frac 0.0006087596070026 0.9989868175880511 0.5004407515999818 Zr
atom_frac 0.9993912403929975 0.4989868175880511 0.4995592484000182 Zr
atom_frac 0.7098907182163993 0.0340278512434672 0.7093573701157655 S
atom_frac 0.7097113603755999 0.4670898060334667 0.7097499771522335 S
atom_frac 0.2902886396244000 0.9670898060334668 0.2902500228477665 S
atom_frac 0.2901092817836007 0.5340278512434667 0.2906426298842346 S
atom_frac 0.7902886396244000 0.9670898060334668 0.2097499771522335 S
atom_frac 0.7901092817836007 0.5340278512434667 0.2093573701157655 S
atom_frac 0.2098907182163993 0.0340278512434672 0.7906426298842346 S
atom_frac 0.2097113603756000 0.4670898060334667 0.7902500228477666 S
atom_frac 0.4945594743009995 0.7501153035773847 0.9363035490960007 S
atom_frac 0.5054405256990006 0.2501153035773848 0.0636964509040001 S
atom_frac 0.9945594743010000 0.7501153035773847 0.5636964509039993 S
atom_frac 0.0054405256990000 0.2501153035773848 0.4363035490960008 S
