#=======================================================
# FHI-aims file: geometry.in
# Created using the Atomic Simulation Environment (ASE)
# Mon May 20 17:49:15 2024
#=======================================================
lattice_vector 7.0729953411670001 0.0000000000000000 0.0000000000000000 
lattice_vector 0.0000000000000000 9.9271370448089993 0.0000000000000000 
lattice_vector 0.0000000000000000 0.0000000000000000 6.9499392683789996 
atom_frac 0.0505850122330000 0.7489403508416329 0.0111641606950000 Ba
atom_frac 0.9494149877670000 0.2489403508416331 0.9888358393050001 Ba
atom_frac 0.5505850122330007 0.7489403508416329 0.4888358393050006 Ba
atom_frac 0.4494149877670007 0.2489403508416331 0.5111641606949995 Ba
atom_frac 0.4981737211789922 0.0030395472358467 0.0013222547999454 Zr
atom_frac 0.5018262788210077 0.5030395472358467 0.9986777452000546 Zr
atom_frac 0.9981737211789922 0.0030395472358467 0.4986777452000546 Zr
atom_frac 0.0018262788210078 0.5030395472358467 0.5013222547999454 Zr
atom_frac 0.7095320025348006 0.0317925366895983 0.7101425841887016 S
atom_frac 0.7100700760571985 0.4648544914795977 0.7089647630792975 S
atom_frac 0.2899299239428014 0.9648544914795979 0.2910352369207026 S
atom_frac 0.2904679974651992 0.5317925366895978 0.2898574158112985 S
atom_frac 0.7899299239428014 0.9648544914795979 0.2089647630792975 S
atom_frac 0.7904679974651992 0.5317925366895978 0.2101425841887015 S
atom_frac 0.2095320025348007 0.0317925366895983 0.7898574158112985 S
atom_frac 0.2100700760571985 0.4648544914795977 0.7910352369207027 S
atom_frac 0.4945594743009995 0.7496540892678456 0.9363035490960007 S
atom_frac 0.5054405256990006 0.2496540892678458 0.0636964509040001 S
atom_frac 0.9945594743010000 0.7496540892678456 0.5636964509039993 S
atom_frac 0.0054405256990000 0.2496540892678458 0.4363035490960008 S
