#=======================================================
# FHI-aims file: geometry.in
# Created using the Atomic Simulation Environment (ASE)
# Mon May 20 17:49:14 2024
#=======================================================
lattice_vector 7.0729953411670001 0.0000000000000000 0.0000000000000000 
lattice_vector 0.0000000000000000 9.9271370448089993 0.0000000000000000 
lattice_vector 0.0000000000000000 0.0000000000000000 6.9499392683789996 
atom_frac 0.0505850122330001 0.7556514621779570 0.0111641606949999 Ba
atom_frac 0.9494149877670000 0.2556514621779570 0.9888358393050001 Ba
atom_frac 0.5505850122330008 0.7556514621779569 0.4888358393050006 Ba
atom_frac 0.4494149877670007 0.2556514621779570 0.5111641606949995 Ba
atom_frac 0.5097401537120415 0.9837890814088177 0.9929479744002911 Zr
atom_frac 0.4902598462879586 0.4837890814088177 0.0070520255997089 Zr
atom_frac 0.0097401537120415 0.9837890814088177 0.5070520255997090 Zr
atom_frac 0.9902598462879586 0.4837890814088177 0.4929479744002910 Zr
atom_frac 0.7112359020223938 0.0424102808204757 0.7064128173422555 S
atom_frac 0.7083661765696055 0.4754722356104754 0.7126945299257437 S
atom_frac 0.2916338234303946 0.9754722356104754 0.2873054700742564 S
atom_frac 0.2887640979776062 0.5424102808204754 0.2935871826577446 S
atom_frac 0.7916338234303946 0.9754722356104754 0.2126945299257436 S
atom_frac 0.7887640979776062 0.5424102808204754 0.2064128173422553 S
atom_frac 0.2112359020223938 0.0424102808204758 0.7935871826577447 S
atom_frac 0.2083661765696055 0.4754722356104754 0.7873054700742567 S
atom_frac 0.4945594743009995 0.7518448572381556 0.9363035490960007 S
atom_frac 0.5054405256990007 0.2518448572381559 0.0636964509040000 S
atom_frac 0.9945594743010001 0.7518448572381556 0.5636964509039992 S
atom_frac 0.0054405256990000 0.2518448572381559 0.4363035490960008 S
