#=======================================================
# FHI-aims file: geometry.in.supercell
# Created using the Atomic Simulation Environment (ASE)
# Thu May  9 11:15:52 2024

# Additional information:
#  Number of atoms:     160
#=======================================================
lattice_vector 14.2515771654820007 0.0000000000000000 0.0000000000000000 
lattice_vector 0.0000000000000000 20.0394176668260009 0.0000000000000000 
lattice_vector 0.0000000000000000 0.0000000000000000 14.0842578482519993 
atom 0.3165944948972220 7.5147816250597490 0.0662035152188160 Ba
atom 7.4423830776382225 7.5147816250597490 0.0662035152188160 Ba
atom 0.3165944948972220 17.5344904584727495 0.0662035152188160 Ba
atom 7.4423830776382225 17.5344904584727495 0.0662035152188160 Ba
atom 0.3165944948972220 7.5147816250597490 7.1083324393448164 Ba
atom 7.4423830776382225 7.5147816250597490 7.1083324393448164 Ba
atom 0.3165944948972220 17.5344904584727495 7.1083324393448164 Ba
atom 7.4423830776382225 17.5344904584727495 7.1083324393448164 Ba
atom 13.9349826705847786 2.5049272083532501 14.0180543330331826 Ba
atom 6.8091940878437791 2.5049272083532501 14.0180543330331826 Ba
atom 13.9349826705847786 12.5246360417662501 14.0180543330331826 Ba
atom 6.8091940878437791 12.5246360417662501 14.0180543330331826 Ba
atom 13.9349826705847786 2.5049272083532501 6.9759254089071829 Ba
atom 6.8091940878437791 2.5049272083532501 6.9759254089071829 Ba
atom 13.9349826705847786 12.5246360417662501 6.9759254089071829 Ba
atom 6.8091940878437791 12.5246360417662501 6.9759254089071829 Ba
atom 3.8794887862677201 7.5147816250597490 3.4548609468441800 Ba
atom 11.0052773690087200 7.5147816250597490 3.4548609468441800 Ba
atom 3.8794887862677201 17.5344904584727495 3.4548609468441800 Ba
atom 11.0052773690087200 17.5344904584727495 3.4548609468441800 Ba
atom 3.8794887862677201 7.5147816250597490 10.4969898709701805 Ba
atom 11.0052773690087200 7.5147816250597490 10.4969898709701805 Ba
atom 3.8794887862677201 17.5344904584727495 10.4969898709701805 Ba
atom 11.0052773690087200 17.5344904584727495 10.4969898709701805 Ba
atom 3.2462997964732798 2.5049272083532501 3.5872679772818201 Ba
atom 10.3720883792142793 2.5049272083532501 3.5872679772818201 Ba
atom 3.2462997964732798 12.5246360417662501 3.5872679772818201 Ba
atom 10.3720883792142793 12.5246360417662501 3.5872679772818201 Ba
atom 3.2462997964732798 2.5049272083532501 10.6293969014078211 Ba
atom 10.3720883792142793 2.5049272083532501 10.6293969014078211 Ba
atom 3.2462997964732798 12.5246360417662501 10.6293969014078211 Ba
atom 10.3720883792142793 12.5246360417662501 10.6293969014078211 Ba
atom 3.5628942913705002 0.0000000000000000 0.0000000000000000 Zr
atom 10.6886828741114996 0.0000000000000000 0.0000000000000000 Zr
atom 3.5628942913705002 10.0197088334130004 0.0000000000000000 Zr
atom 10.6886828741114996 10.0197088334130004 0.0000000000000000 Zr
atom 3.5628942913705002 0.0000000000000000 7.0421289241259997 Zr
atom 10.6886828741114996 0.0000000000000000 7.0421289241259997 Zr
atom 3.5628942913705002 10.0197088334130004 7.0421289241259997 Zr
atom 10.6886828741114996 10.0197088334130004 7.0421289241259997 Zr
atom 3.5628942913705002 5.0098544167065002 0.0000000000000000 Zr
atom 10.6886828741114996 5.0098544167065002 0.0000000000000000 Zr
atom 3.5628942913705002 15.0295632501195016 0.0000000000000000 Zr
atom 10.6886828741114996 15.0295632501195016 0.0000000000000000 Zr
atom 3.5628942913705002 5.0098544167065002 7.0421289241259997 Zr
atom 10.6886828741114996 5.0098544167065002 7.0421289241259997 Zr
atom 3.5628942913705002 15.0295632501195016 7.0421289241259997 Zr
atom 10.6886828741114996 15.0295632501195016 7.0421289241259997 Zr
atom 0.0000000000000000 0.0000000000000000 3.5210644620629998 Zr
atom 7.1257885827410004 0.0000000000000000 3.5210644620629998 Zr
atom 0.0000000000000000 10.0197088334130004 3.5210644620629998 Zr
atom 7.1257885827410004 10.0197088334130004 3.5210644620629998 Zr
atom 0.0000000000000000 0.0000000000000000 10.5631933861889991 Zr
atom 7.1257885827410004 0.0000000000000000 10.5631933861889991 Zr
atom 0.0000000000000000 10.0197088334130004 10.5631933861889991 Zr
atom 7.1257885827410004 10.0197088334130004 10.5631933861889991 Zr
atom 0.0000000000000000 5.0098544167065002 3.5210644620629998 Zr
atom 7.1257885827410004 5.0098544167065002 3.5210644620629998 Zr
atom 0.0000000000000000 15.0295632501195016 3.5210644620629998 Zr
atom 7.1257885827410004 15.0295632501195016 3.5210644620629998 Zr
atom 0.0000000000000000 5.0098544167065002 10.5631933861889991 Zr
atom 7.1257885827410004 5.0098544167065002 10.5631933861889991 Zr
atom 0.0000000000000000 15.0295632501195016 10.5631933861889991 Zr
atom 7.1257885827410004 15.0295632501195016 10.5631933861889991 Zr
atom 5.0791863804405102 0.3237064552541929 5.0203283631040296 S
atom 12.2049749631815097 0.3237064552541929 5.0203283631040296 S
atom 5.0791863804405102 10.3434152886671935 5.0203283631040296 S
atom 12.2049749631815097 10.3434152886671935 5.0203283631040296 S
atom 5.0791863804405102 0.3237064552541929 12.0624572872300302 S
atom 12.2049749631815097 0.3237064552541929 12.0624572872300302 S
atom 5.0791863804405102 10.3434152886671935 12.0624572872300302 S
atom 12.2049749631815097 10.3434152886671935 12.0624572872300302 S
atom 5.0791863804405102 4.6861479614523098 5.0203283631040296 S
atom 12.2049749631815097 4.6861479614523098 5.0203283631040296 S
atom 5.0791863804405102 14.7058567948653103 5.0203283631040296 S
atom 12.2049749631815097 14.7058567948653103 5.0203283631040296 S
atom 5.0791863804405102 4.6861479614523098 12.0624572872300302 S
atom 12.2049749631815097 4.6861479614523098 12.0624572872300302 S
atom 5.0791863804405102 14.7058567948653103 12.0624572872300302 S
atom 12.2049749631815097 14.7058567948653103 12.0624572872300302 S
atom 2.0466022023004999 9.6960023781588092 2.0218005610219705 S
atom 9.1723907850415003 9.6960023781588092 2.0218005610219705 S
atom 2.0466022023004999 19.7157112115718078 2.0218005610219705 S
atom 9.1723907850415003 19.7157112115718078 2.0218005610219705 S
atom 2.0466022023004999 9.6960023781588092 9.0639294851479697 S
atom 9.1723907850415003 9.6960023781588092 9.0639294851479697 S
atom 2.0466022023004999 19.7157112115718078 9.0639294851479697 S
atom 9.1723907850415003 19.7157112115718078 9.0639294851479697 S
atom 2.0466022023004999 5.3335608719606897 2.0218005610219705 S
atom 9.1723907850415003 5.3335608719606897 2.0218005610219705 S
atom 2.0466022023004999 15.3532697053736893 2.0218005610219705 S
atom 9.1723907850415003 15.3532697053736893 2.0218005610219705 S
atom 2.0466022023004999 5.3335608719606897 9.0639294851479697 S
atom 9.1723907850415003 5.3335608719606897 9.0639294851479697 S
atom 2.0466022023004999 15.3532697053736893 9.0639294851479697 S
atom 9.1723907850415003 15.3532697053736893 9.0639294851479697 S
atom 5.6094964936709903 9.6960023781588092 1.4992639010410302 S
atom 12.7352850764119907 9.6960023781588092 1.4992639010410302 S
atom 5.6094964936709903 19.7157112115718078 1.4992639010410302 S
atom 12.7352850764119907 19.7157112115718078 1.4992639010410302 S
atom 5.6094964936709903 9.6960023781588092 8.5413928251670299 S
atom 12.7352850764119907 9.6960023781588092 8.5413928251670299 S
atom 5.6094964936709903 19.7157112115718078 8.5413928251670299 S
atom 12.7352850764119907 19.7157112115718078 8.5413928251670299 S
atom 5.6094964936709903 5.3335608719606897 1.4992639010410302 S
atom 12.7352850764119907 5.3335608719606897 1.4992639010410302 S
atom 5.6094964936709903 15.3532697053736893 1.4992639010410302 S
atom 12.7352850764119907 15.3532697053736893 1.4992639010410302 S
atom 5.6094964936709903 5.3335608719606897 8.5413928251670299 S
atom 12.7352850764119907 5.3335608719606897 8.5413928251670299 S
atom 5.6094964936709903 15.3532697053736893 8.5413928251670299 S
atom 12.7352850764119907 15.3532697053736893 8.5413928251670299 S
atom 1.5162920890699998 0.3237064552541929 5.5428650230849703 S
atom 8.6420806718109997 0.3237064552541929 5.5428650230849703 S
atom 1.5162920890699998 10.3434152886671935 5.5428650230849703 S
atom 8.6420806718109997 10.3434152886671935 5.5428650230849703 S
atom 1.5162920890699998 0.3237064552541929 12.5849939472109700 S
atom 8.6420806718109997 0.3237064552541929 12.5849939472109700 S
atom 1.5162920890699998 10.3434152886671935 12.5849939472109700 S
atom 8.6420806718109997 10.3434152886671935 12.5849939472109700 S
atom 1.5162920890699998 4.6861479614523098 5.5428650230849703 S
atom 8.6420806718109997 4.6861479614523098 5.5428650230849703 S
atom 1.5162920890699998 14.7058567948653103 5.5428650230849703 S
atom 8.6420806718109997 14.7058567948653103 5.5428650230849703 S
atom 1.5162920890699998 4.6861479614523098 12.5849939472109700 S
atom 8.6420806718109997 4.6861479614523098 12.5849939472109700 S
atom 1.5162920890699998 14.7058567948653103 12.5849939472109700 S
atom 8.6420806718109997 14.7058567948653103 12.5849939472109700 S
atom 3.5181829540185001 7.5147816250597490 6.6078165275798408 S
atom 10.6439715367595014 7.5147816250597490 6.6078165275798408 S
atom 3.5181829540185001 17.5344904584727495 6.6078165275798408 S
atom 10.6439715367595014 17.5344904584727495 6.6078165275798408 S
atom 3.5181829540185001 7.5147816250597490 13.6499454517058396 S
atom 10.6439715367595014 7.5147816250597490 13.6499454517058396 S
atom 3.5181829540185001 17.5344904584727495 13.6499454517058396 S
atom 10.6439715367595014 17.5344904584727495 13.6499454517058396 S
atom 3.6076056287224993 2.5049272083532501 0.4343123965461581 S
atom 10.7333942114634997 2.5049272083532501 0.4343123965461581 S
atom 3.6076056287224993 12.5246360417662501 0.4343123965461581 S
atom 10.7333942114634997 12.5246360417662501 0.4343123965461581 S
atom 3.6076056287224993 2.5049272083532501 7.4764413206721576 S
atom 10.7333942114634997 2.5049272083532501 7.4764413206721576 S
atom 3.6076056287224993 12.5246360417662501 7.4764413206721576 S
atom 10.7333942114634997 12.5246360417662501 7.4764413206721576 S
atom 14.2068658281300007 7.5147816250597490 3.9553768586091604 S
atom 7.0810772453889994 7.5147816250597490 3.9553768586091604 S
atom 14.2068658281300007 17.5344904584727495 3.9553768586091604 S
atom 7.0810772453889994 17.5344904584727495 3.9553768586091604 S
atom 14.2068658281300007 7.5147816250597490 10.9975057827351588 S
atom 7.0810772453889994 7.5147816250597490 10.9975057827351588 S
atom 14.2068658281300007 17.5344904584727495 10.9975057827351588 S
atom 7.0810772453889994 17.5344904584727495 10.9975057827351588 S
atom 0.0447113373520005 2.5049272083532501 3.0867520655168401 S
atom 7.1704999200930013 2.5049272083532501 3.0867520655168401 S
atom 0.0447113373520005 12.5246360417662501 3.0867520655168401 S
atom 7.1704999200930013 12.5246360417662501 3.0867520655168401 S
atom 0.0447113373520005 2.5049272083532501 10.1288809896428393 S
atom 7.1704999200930013 2.5049272083532501 10.1288809896428393 S
atom 0.0447113373520005 12.5246360417662501 10.1288809896428393 S
atom 7.1704999200930013 12.5246360417662501 10.1288809896428393 S
