#=======================================================
# FHI-aims file: geometry.in
# Created using the Atomic Simulation Environment (ASE)
# Mon May 20 17:49:16 2024
#=======================================================
lattice_vector 7.0729953411670001 0.0000000000000000 0.0000000000000000 
lattice_vector 0.0000000000000000 9.9271370448089993 0.0000000000000000 
lattice_vector 0.0000000000000000 0.0000000000000000 6.9499392683789996 
atom_frac 0.0505850122330000 0.7439953214359205 0.0111641606950001 Ba
atom_frac 0.9494149877670000 0.2439953214359206 0.9888358393050001 Ba
atom_frac 0.5505850122330007 0.7439953214359205 0.4888358393050006 Ba
atom_frac 0.4494149877670007 0.2439953214359206 0.5111641606949995 Ba
atom_frac 0.4896510866809559 0.0172241010031312 0.0074927771996908 Zr
atom_frac 0.5103489133190440 0.5172241010031311 0.9925072228003093 Zr
atom_frac 0.9896510866809559 0.0172241010031312 0.4925072228003093 Zr
atom_frac 0.0103489133190440 0.5172241010031311 0.5074927771996908 Zr
atom_frac 0.7082764976492057 0.0239689357510570 0.7128908334439776 S
atom_frac 0.7113255809427933 0.4570308905410567 0.7062165138240214 S
atom_frac 0.2886744190572065 0.9570308905410565 0.2937834861759787 S
atom_frac 0.2917235023507941 0.5239689357510565 0.2871091665560224 S
atom_frac 0.7886744190572065 0.9570308905410565 0.2062165138240213 S
atom_frac 0.7917235023507943 0.5239689357510564 0.2128908334439776 S
atom_frac 0.2082764976492058 0.0239689357510569 0.7871091665560225 S
atom_frac 0.2113255809427934 0.4570308905410567 0.7937834861759787 S
atom_frac 0.4945594743009995 0.7480398391844593 0.9363035490960007 S
atom_frac 0.5054405256990006 0.2480398391844593 0.0636964509040001 S
atom_frac 0.9945594743009999 0.7480398391844593 0.5636964509039993 S
atom_frac 0.0054405256990000 0.2480398391844593 0.4363035490960008 S
