#=======================================================
# FHI-aims file: geometry.in
# Created using the Atomic Simulation Environment (ASE)
# Mon May 20 17:49:16 2024
#=======================================================
lattice_vector 7.0729953411670001 0.0000000000000000 0.0000000000000000 
lattice_vector 0.0000000000000000 9.9271370448089993 0.0000000000000000 
lattice_vector 0.0000000000000000 0.0000000000000000 6.9499392683789996 
atom_frac 0.0505850122330000 0.7425824558914312 0.0111641606950001 Ba
atom_frac 0.9494149877670000 0.2425824558914314 0.9888358393050001 Ba
atom_frac 0.5505850122330006 0.7425824558914312 0.4888358393050006 Ba
atom_frac 0.4494149877670007 0.2425824558914314 0.5111641606949995 Ba
atom_frac 0.4872160482529456 0.0212768306509268 0.0092557835996180 Zr
atom_frac 0.5127839517470544 0.5212768306509268 0.9907442164003821 Zr
atom_frac 0.9872160482529455 0.0212768306509267 0.4907442164003821 Zr
atom_frac 0.0127839517470543 0.5212768306509267 0.5092557835996181 Zr
atom_frac 0.7079177819676071 0.0217336211971880 0.7136760475169137 S
atom_frac 0.7116842966243919 0.4547955759871876 0.7054312997510853 S
atom_frac 0.2883157033756079 0.9547955759871877 0.2945687002489146 S
atom_frac 0.2920822180323926 0.5217336211971876 0.2863239524830864 S
atom_frac 0.7883157033756080 0.9547955759871877 0.2054312997510853 S
atom_frac 0.7920822180323928 0.5217336211971876 0.2136760475169137 S
atom_frac 0.2079177819676073 0.0217336211971880 0.7863239524830864 S
atom_frac 0.2116842966243920 0.4547955759871876 0.7945687002489148 S
atom_frac 0.4945594743009995 0.7475786248749202 0.9363035490960007 S
atom_frac 0.5054405256990006 0.2475786248749204 0.0636964509040001 S
atom_frac 0.9945594743009999 0.7475786248749202 0.5636964509039993 S
atom_frac 0.0054405256990000 0.2475786248749204 0.4363035490960008 S
