#=======================================================
# FHI-aims file: ./geometry.in
# Created using the Atomic Simulation Environment (ASE)
# Tue Oct  8 12:03:38 2024
#=======================================================
lattice_vector -6.9144572658460000 6.9144572658460000 10.1670653978800001 
lattice_vector 6.9144572658460000 -6.9144572658460000 10.1670653978800001 
lattice_vector 6.9144572658460000 6.9144572658460000 -10.1670653978800001 
atom_frac 0.3757089014083322 0.1249999999999999 0.2500000000000000 Ba
atom_frac 0.8750000000000000 0.1249999999999999 0.2500000000000000 Ba
atom_frac 0.3749999999999999 0.6250000000000000 0.2500000000000001 Ba
atom_frac 0.8750000000000000 0.6250000000000000 0.2500000000000000 Ba
atom_frac 0.3749999999999999 0.1250000000000001 0.7500000000000002 Ba
atom_frac 0.8750000000000002 0.1249999999999999 0.7500000000000001 Ba
atom_frac 0.3749999999999999 0.6250000000000000 0.7500000000000001 Ba
atom_frac 0.8750000000000000 0.6250000000000002 0.7500000000000001 Ba
atom_frac 0.1249999999999998 0.3750000000000001 0.2500000000000002 Ba
atom_frac 0.6250000000000000 0.3750000000000001 0.2500000000000001 Ba
atom_frac 0.1249999999999999 0.8749999999999999 0.2499999999999999 Ba
atom_frac 0.6250000000000001 0.8750000000000001 0.2500000000000001 Ba
atom_frac 0.1249999999999998 0.3750000000000002 0.7500000000000002 Ba
atom_frac 0.6249999999999999 0.3750000000000002 0.7500000000000002 Ba
atom_frac 0.1249999999999998 0.8750000000000000 0.7500000000000002 Ba
atom_frac 0.6250000000000000 0.8750000000000002 0.7500000000000001 Ba
atom_frac 0.0000000000000000 -0.0000000000000000 0.0000000000000000 Zr
atom_frac 0.4999999999999999 -0.0000000000000000 0.0000000000000000 Zr
atom_frac 0.0000000000000000 0.4999999999999999 0.0000000000000000 Zr
atom_frac 0.4999999999999999 0.4999999999999999 0.0000000000000000 Zr
atom_frac 0.0000000000000000 -0.0000000000000000 0.5000000000000000 Zr
atom_frac 0.4999999999999999 -0.0000000000000000 0.5000000000000000 Zr
atom_frac -0.0000000000000001 0.5000000000000000 0.5000000000000000 Zr
atom_frac 0.4999999999999999 0.5000000000000000 0.5000000000000000 Zr
atom_frac 0.2499999999999999 0.2500000000000000 0.0000000000000000 Zr
atom_frac 0.7499999999999998 0.2500000000000000 0.0000000000000000 Zr
atom_frac 0.2499999999999998 0.7499999999999999 -0.0000000000000001 Zr
atom_frac 0.7500000000000000 0.7499999999999999 0.0000000000000001 Zr
atom_frac 0.2499999999999999 0.2500000000000000 0.5000000000000000 Zr
atom_frac 0.7499999999999998 0.2499999999999999 0.5000000000000000 Zr
atom_frac 0.2499999999999998 0.7499999999999999 0.5000000000000000 Zr
atom_frac 0.7499999999999998 0.7500000000000001 0.5000000000000002 Zr
atom_frac 0.3750000000000000 0.3749999999999999 -0.0000000000000000 S
atom_frac 0.8750000000000000 0.3749999999999999 0.0000000000000000 S
atom_frac 0.3749999999999999 0.8750000000000000 0.0000000000000000 S
atom_frac 0.8750000000000000 0.8750000000000000 -0.0000000000000000 S
atom_frac 0.3749999999999999 0.3749999999999999 0.5000000000000000 S
atom_frac 0.8750000000000000 0.3749999999999999 0.5000000000000000 S
atom_frac 0.3749999999999999 0.8749999999999999 0.5000000000000000 S
atom_frac 0.8750000000000000 0.8749999999999998 0.5000000000000000 S
atom_frac 0.1250000000000000 0.1250000000000000 0.0000000000000000 S
atom_frac 0.6249999999999999 0.1250000000000001 0.0000000000000000 S
atom_frac 0.1250000000000000 0.6249999999999999 0.0000000000000000 S
atom_frac 0.6250000000000000 0.6250000000000000 0.0000000000000000 S
atom_frac 0.1249999999999999 0.1250000000000000 0.5000000000000000 S
atom_frac 0.6250000000000000 0.1250000000000001 0.5000000000000002 S
atom_frac 0.1249999999999998 0.6250000000000000 0.5000000000000000 S
atom_frac 0.6249999999999999 0.6250000000000001 0.5000000000000000 S
atom_frac 0.4044846855310000 0.3455153144690001 0.2500000000000000 S
atom_frac 0.9044846855310000 0.3455153144690001 0.2500000000000000 S
atom_frac 0.4044846855309998 0.8455153144690002 0.2500000000000001 S
atom_frac 0.9044846855309998 0.8455153144689999 0.2500000000000001 S
atom_frac 0.4044846855309998 0.3455153144690002 0.7500000000000002 S
atom_frac 0.9044846855310000 0.3455153144690004 0.7500000000000001 S
atom_frac 0.4044846855309996 0.8455153144690003 0.7500000000000002 S
atom_frac 0.9044846855309998 0.8455153144690002 0.7500000000000002 S
atom_frac 0.0955153144690000 0.1544846855309999 0.2500000000000000 S
atom_frac 0.5955153144690000 0.1544846855310000 0.2500000000000000 S
atom_frac 0.0955153144690000 0.6544846855310001 0.2500000000000001 S
atom_frac 0.5955153144689999 0.6544846855309999 0.2500000000000001 S
atom_frac 0.0955153144690000 0.1544846855309999 0.7499999999999999 S
atom_frac 0.5955153144690000 0.1544846855310002 0.7500000000000001 S
atom_frac 0.0955153144689999 0.6544846855310001 0.7500000000000002 S
atom_frac 0.5955153144689997 0.6544846855310003 0.7500000000000002 S
atom_frac 0.1544846855309999 0.4044846855309999 0.0589693710619999 S
atom_frac 0.6544846855310000 0.4044846855310000 0.0589693710620000 S
atom_frac 0.1544846855309998 0.9044846855310000 0.0589693710619999 S
atom_frac 0.6544846855309998 0.9044846855310001 0.0589693710619999 S
atom_frac 0.1544846855309999 0.4044846855309999 0.5589693710620000 S
atom_frac 0.6544846855309999 0.4044846855309999 0.5589693710620000 S
atom_frac 0.1544846855309999 0.9044846855309998 0.5589693710620001 S
atom_frac 0.6544846855309998 0.9044846855310000 0.5589693710620000 S
atom_frac 0.3455153144690001 0.0955153144690000 0.4410306289380002 S
atom_frac 0.8455153144690000 0.0955153144690002 0.4410306289380001 S
atom_frac 0.3455153144689999 0.5955153144690002 0.4410306289380002 S
atom_frac 0.8455153144690000 0.5955153144690000 0.4410306289380002 S
atom_frac 0.3455153144690002 0.0955153144690001 0.9410306289380004 S
atom_frac 0.8455153144690000 0.0955153144690002 0.9410306289380003 S
atom_frac 0.3455153144689999 0.5955153144690002 0.9410306289380004 S
atom_frac 0.8455153144689996 0.5955153144690002 0.9410306289380002 S
