#=======================================================
# FHI-aims file: geometry.in
# Created using the Atomic Simulation Environment (ASE)
# Mon May 20 17:49:13 2024
#=======================================================
lattice_vector 7.0729953411670001 0.0000000000000000 0.0000000000000000 
lattice_vector 0.0000000000000000 9.9271370448089993 0.0000000000000000 
lattice_vector 0.0000000000000000 0.0000000000000000 6.9499392683789996 
atom_frac 0.0505850122330001 0.7609497079697917 0.0111641606949999 Ba
atom_frac 0.9494149877670001 0.2609497079697917 0.9888358393050002 Ba
atom_frac 0.5505850122330008 0.7609497079697914 0.4888358393050005 Ba
atom_frac 0.4494149877670007 0.2609497079697917 0.5111641606949995 Ba
atom_frac 0.5188715478170804 0.9685913452295841 0.9863367004005639 Zr
atom_frac 0.4811284521829197 0.4685913452295842 0.0136632995994359 Zr
atom_frac 0.0188715478170804 0.9685913452295843 0.5136632995994359 Zr
atom_frac 0.9811284521829198 0.4685913452295842 0.4863367004005639 Zr
atom_frac 0.7125810858283883 0.0507927103974843 0.7034682645687452 S
atom_frac 0.7070209927636111 0.4838546651874839 0.7156390826992537 S
atom_frac 0.2929790072363893 0.9838546651874839 0.2843609173007464 S
atom_frac 0.2874189141716118 0.5507927103974839 0.2965317354312547 S
atom_frac 0.7929790072363893 0.9838546651874839 0.2156390826992537 S
atom_frac 0.7874189141716116 0.5507927103974839 0.2034682645687452 S
atom_frac 0.2125810858283883 0.0507927103974843 0.7965317354312549 S
atom_frac 0.2070209927636109 0.4838546651874839 0.7843609173007463 S
atom_frac 0.4945594743009996 0.7535744108989267 0.9363035490960006 S
atom_frac 0.5054405256990007 0.2535744108989270 0.0636964509040000 S
atom_frac 0.9945594743010001 0.7535744108989267 0.5636964509039992 S
atom_frac 0.0054405256990000 0.2535744108989270 0.4363035490960008 S
