#=======================================================
# FHI-aims file: geometry.in
# Created using the Atomic Simulation Environment (ASE)
# Mon May 20 17:49:16 2024
#=======================================================
lattice_vector 7.0729953411670001 0.0000000000000000 0.0000000000000000 
lattice_vector 0.0000000000000000 9.9271370448089993 0.0000000000000000 
lattice_vector 0.0000000000000000 0.0000000000000000 6.9499392683789996 
atom_frac 0.0505850122330000 0.7415228067330643 0.0111641606950001 Ba
atom_frac 0.9494149877670000 0.2415228067330644 0.9888358393050001 Ba
atom_frac 0.5505850122330006 0.7415228067330643 0.4888358393050006 Ba
atom_frac 0.4494149877670007 0.2415228067330645 0.5111641606949995 Ba
atom_frac 0.4853897694319378 0.0243163778867735 0.0105780383995634 Zr
atom_frac 0.5146102305680621 0.5243163778867734 0.9894219616004367 Zr
atom_frac 0.9853897694319378 0.0243163778867734 0.4894219616004367 Zr
atom_frac 0.0146102305680621 0.5243163778867734 0.5105780383995635 Zr
atom_frac 0.7076487452064084 0.0200571352817863 0.7142649580716157 S
atom_frac 0.7119533333855907 0.4531190900717859 0.7048423891963833 S
atom_frac 0.2880466666144089 0.9531190900717860 0.2951576108036167 S
atom_frac 0.2923512547935916 0.5200571352817858 0.2857350419283844 S
atom_frac 0.7880466666144090 0.9531190900717860 0.2048423891963833 S
atom_frac 0.7923512547935916 0.5200571352817858 0.2142649580716157 S
atom_frac 0.2076487452064084 0.0200571352817863 0.7857350419283844 S
atom_frac 0.2119533333855909 0.4531190900717859 0.7951576108036168 S
atom_frac 0.4945594743009994 0.7472327141427660 0.9363035490960007 S
atom_frac 0.5054405256990006 0.2472327141427662 0.0636964509040001 S
atom_frac 0.9945594743009999 0.7472327141427660 0.5636964509039993 S
atom_frac 0.0054405256990000 0.2472327141427661 0.4363035490960008 S
