#=======================================================
# FHI-aims file: ./geometry.in
# Created using the Atomic Simulation Environment (ASE)
# Sun Mar 24 14:49:23 2024
#=======================================================
lattice_vector 7.0729953411669308 -0.0000000000000000 0.0000000000000000 
lattice_vector 0.0000000000000000 9.9271370448091076 0.0000000000000000 
lattice_vector 0.0000000000000000 0.0000000000000000 6.9499392683788068 
atom_frac 0.0505850122327100 0.7500000000000001 0.0111641606948495 Ba
atom_frac -0.0505850122327097 0.2500000000000001 -0.0111641606948497 Ba
atom_frac 0.5505850122327102 0.7500000000000001 0.4888358393051505 Ba
atom_frac 0.4494149877672904 0.2500000000000001 0.5111641606948497 Ba
atom_frac 0.5000000000000002 0.0000000000000001 -0.0000000000000001 Zr
atom_frac 0.5000000000000002 0.5000000000000001 -0.0000000000000001 Zr
atom_frac 0.0000000000000001 0.0000000000000001 0.5000000000000000 Zr
atom_frac 0.0000000000000001 0.5000000000000001 0.5000000000000000 Zr
atom_frac 0.7098010392957829 0.0334690226045273 0.7095536736335352 S
atom_frac 0.7098010392957829 0.4665309773954727 0.7095536736335352 S
atom_frac 0.2901989607042177 0.9665309773954731 0.2904463263664649 S
atom_frac 0.2901989607042177 0.5334690226045274 0.2904463263664649 S
atom_frac 0.7901989607042178 0.9665309773954731 0.2095536736335350 S
atom_frac 0.7901989607042178 0.5334690226045274 0.2095536736335350 S
atom_frac 0.2098010392957827 0.0334690226045273 0.7904463263664652 S
atom_frac 0.2098010392957827 0.4665309773954727 0.7904463263664652 S
atom_frac 0.4945594743011232 0.7500000000000001 0.9363035490956293 S
atom_frac 0.5054405256988773 0.2500000000000001 0.0636964509043708 S
atom_frac -0.0054405256988769 0.7500000000000001 0.5636964509043709 S
atom_frac 0.0054405256988772 0.2500000000000001 0.4363035490956292 S
