#=======================================================
# FHI-aims file: BaZrS3_tilt_62/geometry.in
# Created using the Atomic Simulation Environment (ASE)
# Sun Mar 24 13:47:55 2024
#=======================================================
lattice_vector 7.0710678118654755 0.0000000000000000 0.0000000000000000 
lattice_vector 0.0000000000000000 10.0000000000000000 0.0000000000000000 
lattice_vector 0.0000000000000000 0.0000000000000000 7.0710678118654755 
atom 0.0000000000000000 7.5000000000000000 0.0000000000000000 Ba
atom 0.0000000000000000 2.5000000000000000 0.0000000000000000 Ba
atom 3.5355339059327378 7.5000000000000000 3.5355339059327378 Ba
atom 3.5355339059327378 2.5000000000000000 3.5355339059327378 Ba
atom 3.5355339059327378 0.0000000000000000 0.0000000000000000 Zr
atom 3.5355339059327378 5.0000000000000000 0.0000000000000000 Zr
atom 0.0000000000000000 0.0000000000000000 3.5355339059327378 Zr
atom 0.0000000000000000 5.0000000000000000 3.5355339059327378 Zr
atom 4.5961940777125596 0.5000000000000000 4.5961940777125596 S
atom 4.5961940777125596 4.5000000000000000 4.5961940777125596 S
atom 2.4748737341529172 9.5000000000000000 2.4748737341529172 S
atom 2.4748737341529172 5.5000000000000000 2.4748737341529172 S
atom 6.0104076400856545 9.5000000000000000 1.0606601717798207 S
atom 6.0104076400856545 5.5000000000000000 1.0606601717798207 S
atom 1.0606601717798207 0.5000000000000000 6.0104076400856545 S
atom 1.0606601717798207 4.5000000000000000 6.0104076400856545 S
atom 3.5355339059327378 7.5000000000000000 6.3639610306789285 S
atom 3.5355339059327378 2.5000000000000000 0.7071067811865482 S
atom 0.0000000000000000 7.5000000000000000 4.2426406871192857 S
atom 0.0000000000000000 2.5000000000000000 2.8284271247461894 S
