Ba Zr  S 
 1.0000000000000000
     7.0729953411670001   -0.0000000000000000    0.0000000000000000
     0.0000000000000000    9.9271370448089993    0.0000000000000000
     0.0000000000000000    0.0000000000000000    6.9499392683789996
 Ba  Zr  S  
   4   4  12
Cartesian
  0.3577875558568850  7.4453527836067490  0.0775902388126739
 -0.3577875558568850  2.4817842612022498 -0.0775902388126739
  3.8942852264403900  7.4453527836067490  3.3973793953768299
  3.1787101147266199  2.4817842612022498  3.5525598730021701
  3.5364976705835001  0.0000000000000000  0.0000000000000000
  3.5364976705835001  4.9635685224044996  0.0000000000000000
  0.0000000000000000  0.0000000000000000  3.4749696341894998
  0.0000000000000000  4.9635685224044996  3.4749696341894998
  5.0204194440960999  0.3322515741556450  4.9313549394115102
  5.0204194440960999  4.6313169482488501  4.9313549394115102
  2.0525758970708998  9.5948854706533506  2.0185843289674898
  2.0525758970708998  5.2958200965601403  2.0185843289674898
  5.5890735676543999  9.5948854706533506  1.4563853052220099
  5.5890735676543999  5.2958200965601403  1.4563853052220099
  1.4839217735126000  0.3322515741556450  5.4935539631569901
  1.4839217735126000  4.6313169482488501  5.4935539631569901
  3.4980168576609700  7.4453527836067490  6.5072528029849197
  3.5749784835060305  2.4817842612022498  0.4426864653940850
 -0.0384808129225263  7.4453527836067490  3.9176560995835796
  0.0384808129225263  2.4817842612022498  3.0322831687954204
