#=======================================================
# FHI-aims file: geometry.in
# Created using the Atomic Simulation Environment (ASE)
# Mon May 20 17:49:14 2024
#=======================================================
lattice_vector 7.0729953411670001 0.0000000000000000 0.0000000000000000 
lattice_vector 0.0000000000000000 9.9271370448089993 0.0000000000000000 
lattice_vector 0.0000000000000000 0.0000000000000000 6.9499392683789996 
atom_frac 0.0505850122330001 0.7538853802473453 0.0111641606950000 Ba
atom_frac 0.9494149877670000 0.2538853802473455 0.9888358393050001 Ba
atom_frac 0.5505850122330008 0.7538853802473453 0.4888358393050006 Ba
atom_frac 0.4494149877670007 0.2538853802473454 0.5111641606949995 Ba
atom_frac 0.5066963556770285 0.9888549934685622 0.9951517324002002 Zr
atom_frac 0.4933036443229715 0.4888549934685621 0.0048482675997998 Zr
atom_frac 0.0066963556770285 0.9888549934685622 0.5048482675997998 Zr
atom_frac 0.9933036443229716 0.4888549934685621 0.4951517324002001 Zr
atom_frac 0.7107875074203955 0.0396161376281396 0.7073943349334254 S
atom_frac 0.7088145711716036 0.4726780924181391 0.7117130123345736 S
atom_frac 0.2911854288283964 0.9726780924181393 0.2882869876654264 S
atom_frac 0.2892124925796044 0.5396161376281391 0.2926056650665745 S
atom_frac 0.7911854288283965 0.9726780924181393 0.2117130123345736 S
atom_frac 0.7892124925796044 0.5396161376281391 0.2073943349334254 S
atom_frac 0.2107875074203956 0.0396161376281396 0.7926056650665748 S
atom_frac 0.2088145711716036 0.4726780924181391 0.7882869876654265 S
atom_frac 0.4945594743009995 0.7512683393512319 0.9363035490960007 S
atom_frac 0.5054405256990006 0.2512683393512322 0.0636964509040000 S
atom_frac 0.9945594743010000 0.7512683393512319 0.5636964509039993 S
atom_frac 0.0054405256990000 0.2512683393512322 0.4363035490960008 S
