#=======================================================
# FHI-aims file: geometry.in
# Created using the Atomic Simulation Environment (ASE)
# Mon May 20 17:49:13 2024
#=======================================================
lattice_vector 7.0729953411670001 0.0000000000000000 0.0000000000000000 
lattice_vector 0.0000000000000000 9.9271370448089993 0.0000000000000000 
lattice_vector 0.0000000000000000 0.0000000000000000 6.9499392683789996 
atom_frac 0.0505850122330001 0.7591836260391801 0.0111641606949999 Ba
atom_frac 0.9494149877670000 0.2591836260391802 0.9888358393050001 Ba
atom_frac 0.5505850122330008 0.7591836260391800 0.4888358393050005 Ba
atom_frac 0.4494149877670007 0.2591836260391801 0.5111641606949995 Ba
atom_frac 0.5158277497820675 0.9736572572893288 0.9885404584004730 Zr
atom_frac 0.4841722502179327 0.4736572572893287 0.0114595415995269 Zr
atom_frac 0.0158277497820674 0.9736572572893288 0.5114595415995269 Zr
atom_frac 0.9841722502179328 0.4736572572893288 0.4885404584004729 Zr
atom_frac 0.7121326912263901 0.0479985672051481 0.7044497821599153 S
atom_frac 0.7074693873656092 0.4810605219951477 0.7146575651080838 S
atom_frac 0.2925306126343911 0.9810605219951478 0.2853424348919164 S
atom_frac 0.2878673087736099 0.5479985672051476 0.2955502178400847 S
atom_frac 0.7925306126343910 0.9810605219951477 0.2146575651080836 S
atom_frac 0.7878673087736099 0.5479985672051477 0.2044497821599152 S
atom_frac 0.2121326912263902 0.0479985672051481 0.7955502178400848 S
atom_frac 0.2074693873656091 0.4810605219951477 0.7853424348919164 S
atom_frac 0.4945594743009996 0.7529978930120030 0.9363035490960006 S
atom_frac 0.5054405256990007 0.2529978930120033 0.0636964509040000 S
atom_frac 0.9945594743010001 0.7529978930120030 0.5636964509039992 S
atom_frac 0.0054405256990000 0.2529978930120033 0.4363035490960008 S
