#=======================================================
# FHI-aims file: geometry.in
# Created using the Atomic Simulation Environment (ASE)
# Mon May 20 17:49:12 2024
#=======================================================
lattice_vector 7.0729953411670001 0.0000000000000000 0.0000000000000000 
lattice_vector 0.0000000000000000 9.9271370448089993 0.0000000000000000 
lattice_vector 0.0000000000000000 0.0000000000000000 6.9499392683789996 
atom_frac 0.0505850122330001 0.7637754390587702 0.0111641606949998 Ba
atom_frac 0.9494149877670001 0.2637754390587703 0.9888358393050002 Ba
atom_frac 0.5505850122330009 0.7637754390587700 0.4888358393050005 Ba
atom_frac 0.4494149877670007 0.2637754390587702 0.5111641606949995 Ba
atom_frac 0.5237416246731011 0.9604858859339930 0.9828106876007094 Zr
atom_frac 0.4762583753268990 0.4604858859339931 0.0171893123992903 Zr
atom_frac 0.0237416246731012 0.9604858859339932 0.5171893123992904 Zr
atom_frac 0.9762583753268991 0.4604858859339932 0.4828106876007093 Zr
atom_frac 0.7132985171915855 0.0552633395052222 0.7018978364228732 S
atom_frac 0.7063035614004139 0.4883252942952218 0.7172095108451259 S
atom_frac 0.2936964385995864 0.9883252942952219 0.2827904891548743 S
atom_frac 0.2867014828084146 0.5552633395052218 0.2981021635771268 S
atom_frac 0.7936964385995864 0.9883252942952219 0.2172095108451258 S
atom_frac 0.7867014828084146 0.5552633395052218 0.2018978364228731 S
atom_frac 0.2132985171915854 0.0552633395052222 0.7981021635771270 S
atom_frac 0.2063035614004138 0.4883252942952218 0.7827904891548743 S
atom_frac 0.4945594743009996 0.7544968395180048 0.9363035490960006 S
atom_frac 0.5054405256990007 0.2544968395180050 0.0636964509040000 S
atom_frac 0.9945594743010001 0.7544968395180048 0.5636964509039992 S
atom_frac 0.0054405256990000 0.2544968395180050 0.4363035490960008 S
