#=======================================================
# FHI-aims file: geometry.in.primitive
# Created using the Atomic Simulation Environment (ASE)
# Thu May  9 14:06:12 2024

# Additional information:
#  Number of atoms:     10
#=======================================================
lattice_vector -3.5016110213310001 3.5016110213310001 5.1155518485649996 
lattice_vector 3.5016110213310001 -3.5016110213310001 5.1155518485649996 
lattice_vector 3.5016110213310001 3.5016110213310001 -5.1155518485649996 
atom 0.0000000000000004 3.5016110213310006 2.5577759242824993 Ba
atom 3.5016110213310001 0.0000000000000000 2.5577759242824998 Ba
atom 0.0000000000000000 0.0000000000000000 0.0000000000000000 Zr
atom 0.0000000000000000 0.0000000000000000 5.1155518485649996 Zr
atom -0.0000000000000006 0.0000000000000006 7.6733277728475011 S
atom 0.0000000000000000 0.0000000000000000 2.5577759242824998 S
atom 1.3716130609409001 2.1299979603900994 5.1155518485649996 S
atom 2.1299979603900998 1.3716130609409001 0.0000000000000003 S
atom 2.1299979603900998 -1.3716130609409001 5.1155518485649996 S
atom 1.3716130609409001 4.8732240822719000 0.0000000000000004 S
