#=======================================================
# FHI-aims file: geometry.in
# Created using the Atomic Simulation Environment (ASE)
# Mon May 20 17:49:14 2024
#=======================================================
lattice_vector 7.0729953411670001 0.0000000000000000 0.0000000000000000 
lattice_vector 0.0000000000000000 9.9271370448089993 0.0000000000000000 
lattice_vector 0.0000000000000000 0.0000000000000000 6.9499392683789996 
atom_frac 0.0505850122330000 0.7517660819306115 0.0111641606950000 Ba
atom_frac 0.9494149877670000 0.2517660819306116 0.9888358393050001 Ba
atom_frac 0.5505850122330007 0.7517660819306112 0.4888358393050006 Ba
atom_frac 0.4494149877670007 0.2517660819306116 0.5111641606949995 Ba
atom_frac 0.5030437980350130 0.9949340879402555 0.9977962420000910 Zr
atom_frac 0.4969562019649871 0.4949340879402555 0.0022037579999090 Zr
atom_frac 0.0030437980350130 0.9949340879402555 0.5022037579999090 Zr
atom_frac 0.9969562019649870 0.4949340879402555 0.4977962420000909 Zr
atom_frac 0.7102494338979978 0.0362631657973361 0.7085721560428296 S
atom_frac 0.7093526446940015 0.4693251205873357 0.7105351912251696 S
atom_frac 0.2906473553059987 0.9693251205873359 0.2894648087748306 S
atom_frac 0.2897505661020022 0.5362631657973357 0.2914278439571705 S
atom_frac 0.7906473553059986 0.9693251205873359 0.2105351912251695 S
atom_frac 0.7897505661020021 0.5362631657973357 0.2085721560428294 S
atom_frac 0.2102494338979978 0.0362631657973362 0.7914278439571707 S
atom_frac 0.2093526446940014 0.4693251205873357 0.7894648087748305 S
atom_frac 0.4945594743009995 0.7505765178869236 0.9363035490960007 S
atom_frac 0.5054405256990006 0.2505765178869237 0.0636964509040000 S
atom_frac 0.9945594743010000 0.7505765178869236 0.5636964509039993 S
atom_frac 0.0054405256990000 0.2505765178869237 0.4363035490960008 S
