#=======================================================
# FHI-aims file: geometry.in
# Created using the Atomic Simulation Environment (ASE)
# Mon May 20 17:49:15 2024
#=======================================================
lattice_vector 7.0729953411670001 0.0000000000000000 0.0000000000000000 
lattice_vector 0.0000000000000000 9.9271370448089993 0.0000000000000000 
lattice_vector 0.0000000000000000 0.0000000000000000 6.9499392683789996 
atom_frac 0.0505850122330000 0.7499999999999999 0.0111641606950000 Ba
atom_frac 0.9494149877670000 0.2500000000000000 0.9888358393050001 Ba
atom_frac 0.5505850122330007 0.7499999999999999 0.4888358393050006 Ba
atom_frac 0.4494149877670007 0.2500000000000000 0.5111641606949995 Ba
atom_frac 0.5000000000000000 0.0000000000000000 0.0000000000000000 Zr
atom_frac 0.5000000000000000 0.5000000000000000 0.0000000000000000 Zr
atom_frac 0.0000000000000000 0.0000000000000000 0.5000000000000000 Zr
atom_frac 0.0000000000000000 0.5000000000000000 0.5000000000000000 Zr
atom_frac 0.7098010392959996 0.0334690226050000 0.7095536736339996 S
atom_frac 0.7098010392959996 0.4665309773949995 0.7095536736339996 S
atom_frac 0.2901989607040004 0.9665309773949996 0.2904463263660005 S
atom_frac 0.2901989607040004 0.5334690226049995 0.2904463263660005 S
atom_frac 0.7901989607040003 0.9665309773949996 0.2095536736339995 S
atom_frac 0.7901989607040003 0.5334690226049995 0.2095536736339995 S
atom_frac 0.2098010392959996 0.0334690226050000 0.7904463263660007 S
atom_frac 0.2098010392959996 0.4665309773949995 0.7904463263660007 S
atom_frac 0.4945594743009995 0.7499999999999999 0.9363035490960007 S
atom_frac 0.5054405256990006 0.2500000000000000 0.0636964509040001 S
atom_frac 0.9945594743010000 0.7499999999999999 0.5636964509039993 S
atom_frac 0.0054405256990000 0.2500000000000000 0.4363035490960008 S
