#=======================================================
# FHI-aims file: geometry.in.supercell
# Created using the Atomic Simulation Environment (ASE)
# Mon May 20 16:41:15 2024

# Additional information:
#  Number of atoms:     160
#=======================================================
lattice_vector 14.1459906823340003 0.0000000000000000 0.0000000000000000 
lattice_vector 0.0000000000000000 19.8542740896179986 0.0000000000000000 
lattice_vector 0.0000000000000000 0.0000000000000000 13.8998785367579991 
atom 0.3577875558568850 7.4453527836067490 0.0775902388126739 Ba
atom 7.4307828970238852 7.4453527836067490 0.0775902388126739 Ba
atom 0.3577875558568850 17.3724898284157483 0.0775902388126739 Ba
atom 7.4307828970238852 17.3724898284157483 0.0775902388126739 Ba
atom 0.3577875558568850 7.4453527836067490 7.0275295071916730 Ba
atom 7.4307828970238852 7.4453527836067490 7.0275295071916730 Ba
atom 0.3577875558568850 17.3724898284157483 7.0275295071916730 Ba
atom 7.4307828970238852 17.3724898284157483 7.0275295071916730 Ba
atom 13.7882031264771143 2.4817842612022498 13.8222882979453257 Ba
atom 6.7152077853101151 2.4817842612022498 13.8222882979453257 Ba
atom 13.7882031264771143 12.4089213060112495 13.8222882979453257 Ba
atom 6.7152077853101151 12.4089213060112495 13.8222882979453257 Ba
atom 13.7882031264771143 2.4817842612022498 6.8723490295663252 Ba
atom 6.7152077853101151 2.4817842612022498 6.8723490295663252 Ba
atom 13.7882031264771143 12.4089213060112495 6.8723490295663252 Ba
atom 6.7152077853101151 12.4089213060112495 6.8723490295663252 Ba
atom 3.8942852264403900 7.4453527836067490 3.3973793953768299 Ba
atom 10.9672805676073892 7.4453527836067490 3.3973793953768299 Ba
atom 3.8942852264403900 17.3724898284157483 3.3973793953768299 Ba
atom 10.9672805676073892 17.3724898284157483 3.3973793953768299 Ba
atom 3.8942852264403900 7.4453527836067490 10.3473186637558285 Ba
atom 10.9672805676073892 7.4453527836067490 10.3473186637558285 Ba
atom 3.8942852264403900 17.3724898284157483 10.3473186637558285 Ba
atom 10.9672805676073892 17.3724898284157483 10.3473186637558285 Ba
atom 3.1787101147266199 2.4817842612022498 3.5525598730021701 Ba
atom 10.2517054558936191 2.4817842612022498 3.5525598730021701 Ba
atom 3.1787101147266199 12.4089213060112495 3.5525598730021701 Ba
atom 10.2517054558936191 12.4089213060112495 3.5525598730021701 Ba
atom 3.1787101147266199 2.4817842612022498 10.5024991413811701 Ba
atom 10.2517054558936191 2.4817842612022498 10.5024991413811701 Ba
atom 3.1787101147266199 12.4089213060112495 10.5024991413811701 Ba
atom 10.2517054558936191 12.4089213060112495 10.5024991413811701 Ba
atom 3.5364976705835001 0.0000000000000000 0.0000000000000000 Zr
atom 10.6094930117504997 0.0000000000000000 0.0000000000000000 Zr
atom 3.5364976705835001 9.9271370448089993 0.0000000000000000 Zr
atom 10.6094930117504997 9.9271370448089993 0.0000000000000000 Zr
atom 3.5364976705835001 0.0000000000000000 6.9499392683789996 Zr
atom 10.6094930117504997 0.0000000000000000 6.9499392683789996 Zr
atom 3.5364976705835001 9.9271370448089993 6.9499392683789996 Zr
atom 10.6094930117504997 9.9271370448089993 6.9499392683789996 Zr
atom 3.5364976705835001 4.9635685224044996 0.0000000000000000 Zr
atom 10.6094930117504997 4.9635685224044996 0.0000000000000000 Zr
atom 3.5364976705835001 14.8907055672134980 0.0000000000000000 Zr
atom 10.6094930117504997 14.8907055672134980 0.0000000000000000 Zr
atom 3.5364976705835001 4.9635685224044996 6.9499392683789996 Zr
atom 10.6094930117504997 4.9635685224044996 6.9499392683789996 Zr
atom 3.5364976705835001 14.8907055672134980 6.9499392683789996 Zr
atom 10.6094930117504997 14.8907055672134980 6.9499392683789996 Zr
atom 0.0000000000000000 0.0000000000000000 3.4749696341894998 Zr
atom 7.0729953411670001 0.0000000000000000 3.4749696341894998 Zr
atom 0.0000000000000000 9.9271370448089993 3.4749696341894998 Zr
atom 7.0729953411670001 9.9271370448089993 3.4749696341894998 Zr
atom 0.0000000000000000 0.0000000000000000 10.4249089025685002 Zr
atom 7.0729953411670001 0.0000000000000000 10.4249089025685002 Zr
atom 0.0000000000000000 9.9271370448089993 10.4249089025685002 Zr
atom 7.0729953411670001 9.9271370448089993 10.4249089025685002 Zr
atom 0.0000000000000000 4.9635685224044996 3.4749696341894998 Zr
atom 7.0729953411670001 4.9635685224044996 3.4749696341894998 Zr
atom 0.0000000000000000 14.8907055672134980 3.4749696341894998 Zr
atom 7.0729953411670001 14.8907055672134980 3.4749696341894998 Zr
atom 0.0000000000000000 4.9635685224044996 10.4249089025685002 Zr
atom 7.0729953411670001 4.9635685224044996 10.4249089025685002 Zr
atom 0.0000000000000000 14.8907055672134980 10.4249089025685002 Zr
atom 7.0729953411670001 14.8907055672134980 10.4249089025685002 Zr
atom 5.0204194440960999 0.3322515741556450 4.9313549394115102 S
atom 12.0934147852631000 0.3322515741556450 4.9313549394115102 S
atom 5.0204194440960999 10.2593886189646444 4.9313549394115102 S
atom 12.0934147852631000 10.2593886189646444 4.9313549394115102 S
atom 5.0204194440960999 0.3322515741556450 11.8812942077905106 S
atom 12.0934147852631000 0.3322515741556450 11.8812942077905106 S
atom 5.0204194440960999 10.2593886189646444 11.8812942077905106 S
atom 12.0934147852631000 10.2593886189646444 11.8812942077905106 S
atom 5.0204194440960999 4.6313169482488501 4.9313549394115102 S
atom 12.0934147852631000 4.6313169482488501 4.9313549394115102 S
atom 5.0204194440960999 14.5584539930578494 4.9313549394115102 S
atom 12.0934147852631000 14.5584539930578494 4.9313549394115102 S
atom 5.0204194440960999 4.6313169482488501 11.8812942077905106 S
atom 12.0934147852631000 4.6313169482488501 11.8812942077905106 S
atom 5.0204194440960999 14.5584539930578494 11.8812942077905106 S
atom 12.0934147852631000 14.5584539930578494 11.8812942077905106 S
atom 2.0525758970708998 9.5948854706533506 2.0185843289674898 S
atom 9.1255712382378995 9.5948854706533506 2.0185843289674898 S
atom 2.0525758970708998 19.5220225154623499 2.0185843289674898 S
atom 9.1255712382378995 19.5220225154623499 2.0185843289674898 S
atom 2.0525758970708998 9.5948854706533506 8.9685235973464899 S
atom 9.1255712382378995 9.5948854706533506 8.9685235973464899 S
atom 2.0525758970708998 19.5220225154623499 8.9685235973464899 S
atom 9.1255712382378995 19.5220225154623499 8.9685235973464899 S
atom 2.0525758970708998 5.2958200965601403 2.0185843289674898 S
atom 9.1255712382378995 5.2958200965601403 2.0185843289674898 S
atom 2.0525758970708998 15.2229571413691378 2.0185843289674898 S
atom 9.1255712382378995 15.2229571413691378 2.0185843289674898 S
atom 2.0525758970708998 5.2958200965601403 8.9685235973464899 S
atom 9.1255712382378995 5.2958200965601403 8.9685235973464899 S
atom 2.0525758970708998 15.2229571413691378 8.9685235973464899 S
atom 9.1255712382378995 15.2229571413691378 8.9685235973464899 S
atom 5.5890735676543999 9.5948854706533506 1.4563853052220099 S
atom 12.6620689088214000 9.5948854706533506 1.4563853052220099 S
atom 5.5890735676543999 19.5220225154623499 1.4563853052220099 S
atom 12.6620689088214000 19.5220225154623499 1.4563853052220099 S
atom 5.5890735676543999 9.5948854706533506 8.4063245736010082 S
atom 12.6620689088214000 9.5948854706533506 8.4063245736010082 S
atom 5.5890735676543999 19.5220225154623499 8.4063245736010082 S
atom 12.6620689088214000 19.5220225154623499 8.4063245736010082 S
atom 5.5890735676543999 5.2958200965601403 1.4563853052220099 S
atom 12.6620689088214000 5.2958200965601403 1.4563853052220099 S
atom 5.5890735676543999 15.2229571413691378 1.4563853052220099 S
atom 12.6620689088214000 15.2229571413691378 1.4563853052220099 S
atom 5.5890735676543999 5.2958200965601403 8.4063245736010082 S
atom 12.6620689088214000 5.2958200965601403 8.4063245736010082 S
atom 5.5890735676543999 15.2229571413691378 8.4063245736010082 S
atom 12.6620689088214000 15.2229571413691378 8.4063245736010082 S
atom 1.4839217735126000 0.3322515741556450 5.4935539631569901 S
atom 8.5569171146796013 0.3322515741556450 5.4935539631569901 S
atom 1.4839217735126000 10.2593886189646444 5.4935539631569901 S
atom 8.5569171146796013 10.2593886189646444 5.4935539631569901 S
atom 1.4839217735126000 0.3322515741556450 12.4434932315359905 S
atom 8.5569171146796013 0.3322515741556450 12.4434932315359905 S
atom 1.4839217735126000 10.2593886189646444 12.4434932315359905 S
atom 8.5569171146796013 10.2593886189646444 12.4434932315359905 S
atom 1.4839217735126000 4.6313169482488501 5.4935539631569901 S
atom 8.5569171146796013 4.6313169482488501 5.4935539631569901 S
atom 1.4839217735126000 14.5584539930578494 5.4935539631569901 S
atom 8.5569171146796013 14.5584539930578494 5.4935539631569901 S
atom 1.4839217735126000 4.6313169482488501 12.4434932315359905 S
atom 8.5569171146796013 4.6313169482488501 12.4434932315359905 S
atom 1.4839217735126000 14.5584539930578494 12.4434932315359905 S
atom 8.5569171146796013 14.5584539930578494 12.4434932315359905 S
atom 3.4980168576609700 7.4453527836067490 6.5072528029849197 S
atom 10.5710121988279706 7.4453527836067490 6.5072528029849197 S
atom 3.4980168576609700 17.3724898284157483 6.5072528029849197 S
atom 10.5710121988279706 17.3724898284157483 6.5072528029849197 S
atom 3.4980168576609700 7.4453527836067490 13.4571920713639201 S
atom 10.5710121988279706 7.4453527836067490 13.4571920713639201 S
atom 3.4980168576609700 17.3724898284157483 13.4571920713639201 S
atom 10.5710121988279706 17.3724898284157483 13.4571920713639201 S
atom 3.5749784835060305 2.4817842612022498 0.4426864653940850 S
atom 10.6479738246730289 2.4817842612022498 0.4426864653940850 S
atom 3.5749784835060305 12.4089213060112495 0.4426864653940850 S
atom 10.6479738246730289 12.4089213060112495 0.4426864653940850 S
atom 3.5749784835060305 2.4817842612022498 7.3926257337730847 S
atom 10.6479738246730289 2.4817842612022498 7.3926257337730847 S
atom 3.5749784835060305 12.4089213060112495 7.3926257337730847 S
atom 10.6479738246730289 12.4089213060112495 7.3926257337730847 S
atom 14.1075098694114747 7.4453527836067490 3.9176560995835796 S
atom 7.0345145282444737 7.4453527836067490 3.9176560995835796 S
atom 14.1075098694114747 17.3724898284157483 3.9176560995835796 S
atom 7.0345145282444737 17.3724898284157483 3.9176560995835796 S
atom 14.1075098694114747 7.4453527836067490 10.8675953679625792 S
atom 7.0345145282444737 7.4453527836067490 10.8675953679625792 S
atom 14.1075098694114747 17.3724898284157483 10.8675953679625792 S
atom 7.0345145282444737 17.3724898284157483 10.8675953679625792 S
atom 0.0384808129225263 2.4817842612022498 3.0322831687954204 S
atom 7.1114761540895266 2.4817842612022498 3.0322831687954204 S
atom 0.0384808129225263 12.4089213060112495 3.0322831687954204 S
atom 7.1114761540895266 12.4089213060112495 3.0322831687954204 S
atom 0.0384808129225263 2.4817842612022498 9.9822224371744195 S
atom 7.1114761540895266 2.4817842612022498 9.9822224371744195 S
atom 0.0384808129225263 12.4089213060112495 9.9822224371744195 S
atom 7.1114761540895266 12.4089213060112495 9.9822224371744195 S
