#=======================================================
# FHI-aims file: /mnt/lustre/a2fs-work2/work/e05/e05/prakaya/chalcogenide_perovskites/redo/ternary/tilted_perovskites/HSE_perovskites/BaZrS3_tilt_62/relaxation/geometry.in.next_step
# Created using the Atomic Simulation Environment (ASE)
# Thu May  2 16:07:54 2024

# Additional information:
#  Relaxed with BFGS, fmax=1.000 meV/AA
#  nsteps = 2
#  residual force  = 0.031468 meV/AA
#  residual stress = 0.568160 meV/AA
#=======================================================
lattice_vector 7.1257885827410004 0.0000000000000000 0.0000000000000000 
lattice_vector -0.0000000000000000 10.0197088334130004 0.0000000000000000 
lattice_vector 0.0000000000000000 0.0000000000000000 7.0421289241259997 
atom_frac 0.0444293977040000 0.7500000000000000 0.0094010654920000 Ba
atom_frac -0.0444293977040000 0.2500000000000000 -0.0094010654920000 Ba
atom_frac 0.5444293977040000 0.7500000000000000 0.4905989345080000 Ba
atom_frac 0.4555706022959999 0.2500000000000000 0.5094010654920000 Ba
atom_frac 0.5000000000000000 0.0000000000000000 0.0000000000000000 Zr
atom_frac 0.5000000000000000 0.5000000000000000 0.0000000000000000 Zr
atom_frac 0.0000000000000000 0.0000000000000000 0.5000000000000000 Zr
atom_frac 0.0000000000000000 0.5000000000000000 0.5000000000000000 Zr
atom_frac 0.7127893736200001 0.0323069722520000 0.7128992407260000 S
atom_frac 0.7127893736200001 0.4676930277480000 0.7128992407260000 S
atom_frac 0.2872106263800000 0.9676930277479999 0.2871007592740000 S
atom_frac 0.2872106263800000 0.5323069722520000 0.2871007592740000 S
atom_frac 0.7872106263799999 0.9676930277479999 0.2128992407260000 S
atom_frac 0.7872106263799999 0.5323069722520000 0.2128992407260000 S
atom_frac 0.2127893736200000 0.0323069722520000 0.7871007592740000 S
atom_frac 0.2127893736200000 0.4676930277480000 0.7871007592740000 S
atom_frac 0.4937254190420000 0.7500000000000000 0.9383265485160001 S
atom_frac 0.5062745809580000 0.2500000000000000 0.0616734514840000 S
atom_frac -0.0062745809580000 0.7500000000000000 0.5616734514840001 S
atom_frac 0.0062745809580000 0.2500000000000000 0.4383265485160000 S
