Ba  S Zr 
 1.0000000000000000
    -3.4681450300000001    3.4681451700000001    5.0985767500000003
     3.4681451299999999   -3.4681450699999998    5.0985767500000003
     3.4681450699999998    3.4681450300000001   -5.0985768199999999
 Ba  S   Zr 
   2   6   2
Cartesian
  0.0000000400000000  3.4681451299999999  2.5492883399999999
  3.4681451200000000  0.0000000100000000  2.5492883399999999
 -1.3427141600000001  2.1254309299999998  5.0985767400000004
  1.3427142700000001  2.1254309000000000 -0.0000000900000000
  2.1254309299999998  1.3427142599999999  5.0985767199999996
  4.8108593700000002  1.3427142299999999 -0.0000001100000000
  0.0000000700000000  0.0000000800000000  7.6478651299999996
  0.0000000200000000  0.0000000300000000  2.5492883800000001
  0.0000000000000000  0.0000000000000000  0.0000000000000000
  0.0000000500000000  0.0000000500000000  5.0985767500000003
