Ba  S Zr 
 1.0000000000000000
    -3.4991715495090001    3.4991716930480856    5.1121074419116903
     3.4991716526902428   -3.4991715898668434    5.1121074419116903
     3.4991715898668434    3.4991715495089997   -5.1121075125379205
 Ba  S   Zr 
   2   6   2
Selective dynamics
Cartesian
  0.0000000409295017  3.4991716521185823  2.5560536856427318   T   T   T
  3.4991716420291228  0.0000000106611178  2.5560536856427318   T   T   T
 -1.3736252864217589  2.1255463406100876  5.1121074343234190   T   T   T
  1.3736253524379962  2.1255462731767008 -0.0000000353131133   T   T   T
  2.1255463305206286  1.3736253896029993  5.1121074065985770   T   T   T
  4.8727969693803823  1.3736253221696122 -0.0000000630379552   T   T   T
  0.0000000723412015  0.0000000824306610  7.6681611628675377   T   T   T
  0.0000000207505802  0.0000000308400397  2.5560537209558469   T   T   T
 -0.0000000050447306  0.0000000050447291  0.0000000000000018   T   T   T
  0.0000000465458907  0.0000000566353502  5.1121074419116921   T   T   T
