Ba  S Zr 
 1.0000000000000000
     6.9622801599999997    0.0000000000000000    0.0000000000000000
     0.0000000000000000    7.0888514599999999    0.0000000000000000
     0.0000000000000000    0.0000000000000000    9.9635187199999997
 Ba  S   Zr 
   4  12   4
Cartesian
  3.4034711099999999  6.7456969600000001  2.4908796799999999
  0.0776690400000000  3.2012712300000001  2.4908796799999999
  3.5588091199999998  0.3431545000000000  7.4726390399999998
  6.8846111900000002  3.8875802300000002  7.4726390399999998
  4.9396063999999997  5.5995790400000001  5.3043725200000003
  5.5038138400000003  2.0551533100000001  9.6409055600000002
  4.9396063999999997  5.5995790400000001  9.6409055600000002
  5.5038138400000003  2.0551533100000001  5.3043725200000003
  2.0226737600000000  1.4892724200000000  4.6591462000000003
  1.4584663200000001  5.0336981500000002  0.3226131600000000
  3.0542688299999998  3.5160966199999999  7.4726390399999998
  3.9080113299999999  3.5727548400000000  2.4908796799999999
  1.4584663200000001  5.0336981500000002  4.6591462000000003
  6.5354089100000001  0.0283291100000000  2.4908796799999999
  0.4268712500000000  7.0605223500000003  7.4726390399999998
  2.0226737600000000  1.4892724200000000  0.3226131600000000
  0.0000000000000000  0.0000000000000000  0.0000000000000000
  3.4811400799999999  3.5444257299999999  4.9817593599999999
  0.0000000000000000  0.0000000000000000  4.9817593599999999
  3.4811400799999999  3.5444257299999999  0.0000000000000000
