Ba  S Zr 
 1.0000000000000000
     7.0087719050817912    0.0000000000000000    0.0000000000000000
     0.0000000000000000    7.1399357511297481    0.0000000000000000
     0.0000000000000000    0.0000000000000000   10.0339912946029433
 Ba  S   Zr 
   4  12   4
Selective dynamics
Cartesian
  3.4307007916857324  6.8011571949127916  2.5084978236507354   T   T   T
  0.0736852313226011  3.2311893193479180  2.5084978236507354   T   T   T
  3.5780711838634969  0.3387785562169587  7.5254934709522079   T   T   T
  6.9350867442266280  3.9087464317818328  7.5254934709522079   T   T   T
  4.9801952036853905  5.6309459152960262  5.3474073467483407   T   T   T
  5.5329627244047348  2.0609780397311530  9.7035795951560733   T   T   T
  4.9801952036853905  5.6309459152960262  9.7035795951560733   T   T   T
  5.5329627244047348  2.0609780397311530  5.3474073467483407   T   T   T
  2.0285767718638392  1.5089898358337237  4.6865839478546008   T   T   T
  1.4758092511444945  5.0789577113985978  0.3304116994468693   T   T   T
  3.0749425103094596  3.5183053917659866  7.5254934709522079   T   T   T
  3.9338294652397696  3.6216303593637633  2.5084978236507354   T   T   T
  1.4758092511444945  5.0789577113985978  4.6865839478546008   T   T   T
  6.5793284628503557  0.0516624837988893  2.5084978236507354   T   T   T
  0.4294435126988739  7.0882732673308606  7.5254934709522079   T   T   T
  2.0285767718638392  1.5089898358337237  0.3304116994468693   T   T   T
  0.0000000352337191  0.0000000000000009 -0.0000000000000004   T   T   T
  3.5043859877746146  3.5699678755648749  5.0169956473014707   T   T   T
  0.0000000352337191  0.0000000000000009  5.0169956473014707   T   T   T
  3.5043859877746146  3.5699678755648749 -0.0000000000000004   T   T   T
