Ba  S Zr 
 1.0000000000000000
    -3.4991715495089992    3.4991716930480865    5.1121074419116903
     3.4991716526902419   -3.4991715898668443    5.1121074419116903
     3.4991715898668430    3.4991715495090001   -5.1121075125379205
 Ba  S   Zr 
   2   6   2
Selective dynamics
Cartesian
  0.0000000409295023  3.4991716521185827  2.5560536856427345   T   T   T
  3.4991716420291237  0.0000000106611176  2.5560536856427345   T   T   T
 -1.3736252864217566  2.1255463406100894  5.1121074343234216   T   T   T
  1.3736253524379951  2.1255462731767025 -0.0000000353131107   T   T   T
  2.1255463305206308  1.3736253896029975  5.1121074065985797   T   T   T
  4.8727969693803823  1.3736253221696104 -0.0000000630379525   T   T   T
  0.0000000723412019  0.0000000824306610  7.6681611628675395   T   T   T
  0.0000000207505806  0.0000000308400397  2.5560537209558496   T   T   T
 -0.0000000050447303  0.0000000050447291  0.0000000000000044   T   T   T
  0.0000000465458911  0.0000000566353502  5.1121074419116947   T   T   T
