#=======================================================
# FHI-aims file: geometry.in
# Created using the Atomic Simulation Environment (ASE)
# Mon May 20 17:49:15 2024
#=======================================================
lattice_vector 7.0729953411670001 0.0000000000000000 0.0000000000000000 
lattice_vector 0.0000000000000000 9.9271370448089993 0.0000000000000000 
lattice_vector 0.0000000000000000 0.0000000000000000 6.9499392683789996 
atom_frac 0.0505850122330000 0.7461146197526544 0.0111641606950001 Ba
atom_frac 0.9494149877670000 0.2461146197526545 0.9888358393050001 Ba
atom_frac 0.5505850122330007 0.7461146197526544 0.4888358393050006 Ba
atom_frac 0.4494149877670007 0.2461146197526546 0.5111641606949995 Ba
atom_frac 0.4933036443229715 0.0111450065314378 0.0048482675997999 Zr
atom_frac 0.5066963556770285 0.5111450065314378 0.9951517324002002 Zr
atom_frac 0.9933036443229715 0.0111450065314378 0.4951517324002002 Zr
atom_frac 0.0066963556770285 0.5111450065314378 0.5048482675997999 Zr
atom_frac 0.7088145711716036 0.0273219075818604 0.7117130123345737 S
atom_frac 0.7107875074203955 0.4603838623718600 0.7073943349334255 S
atom_frac 0.2892124925796043 0.9603838623718599 0.2926056650665746 S
atom_frac 0.2911854288283963 0.5273219075818599 0.2882869876654265 S
atom_frac 0.7892124925796042 0.9603838623718599 0.2073943349334254 S
atom_frac 0.7911854288283964 0.5273219075818599 0.2117130123345736 S
atom_frac 0.2088145711716036 0.0273219075818604 0.7882869876654265 S
atom_frac 0.2107875074203956 0.4603838623718600 0.7926056650665748 S
atom_frac 0.4945594743009995 0.7487316606487677 0.9363035490960007 S
atom_frac 0.5054405256990006 0.2487316606487678 0.0636964509040001 S
atom_frac 0.9945594743010000 0.7487316606487677 0.5636964509039993 S
atom_frac 0.0054405256990000 0.2487316606487678 0.4363035490960008 S
