#=======================================================
# FHI-aims file: geometry.in
# Created using the Atomic Simulation Environment (ASE)
# Mon May 20 17:49:15 2024
#=======================================================
lattice_vector 7.0729953411670001 0.0000000000000000 0.0000000000000000 
lattice_vector 0.0000000000000000 9.9271370448089993 0.0000000000000000 
lattice_vector 0.0000000000000000 0.0000000000000000 6.9499392683789996 
atom_frac 0.0505850122330000 0.7478807016832659 0.0111641606950000 Ba
atom_frac 0.9494149877670000 0.2478807016832661 0.9888358393050001 Ba
atom_frac 0.5505850122330007 0.7478807016832659 0.4888358393050006 Ba
atom_frac 0.4494149877670007 0.2478807016832661 0.5111641606949995 Ba
atom_frac 0.4963474423579844 0.0060790944716934 0.0026445095998909 Zr
atom_frac 0.5036525576420156 0.5060790944716932 0.9973554904001093 Zr
atom_frac 0.9963474423579844 0.0060790944716934 0.4973554904001092 Zr
atom_frac 0.0036525576420155 0.5060790944716932 0.5026445095998909 Zr
atom_frac 0.7092629657736017 0.0301160507741966 0.7107314947434036 S
atom_frac 0.7103391128183973 0.4631780055641960 0.7083758525245955 S
atom_frac 0.2896608871816025 0.9631780055641962 0.2916241474754045 S
atom_frac 0.2907370342263982 0.5301160507741961 0.2892685052565965 S
atom_frac 0.7896608871816027 0.9631780055641962 0.2083758525245954 S
atom_frac 0.7907370342263982 0.5301160507741961 0.2107314947434035 S
atom_frac 0.2092629657736018 0.0301160507741965 0.7892685052565965 S
atom_frac 0.2103391128183974 0.4631780055641960 0.7916241474754047 S
atom_frac 0.4945594743009995 0.7493081785356914 0.9363035490960007 S
atom_frac 0.5054405256990006 0.2493081785356915 0.0636964509040001 S
atom_frac 0.9945594743010000 0.7493081785356914 0.5636964509039993 S
atom_frac 0.0054405256990000 0.2493081785356915 0.4363035490960008 S
