#=======================================================
# FHI-aims file: geometry.in
# Created using the Atomic Simulation Environment (ASE)
# Mon May 20 17:49:14 2024
#=======================================================
lattice_vector 7.0729953411670001 0.0000000000000000 0.0000000000000000 
lattice_vector 0.0000000000000000 9.9271370448089993 0.0000000000000000 
lattice_vector 0.0000000000000000 0.0000000000000000 6.9499392683789996 
atom_frac 0.0505850122330001 0.7549450294057123 0.0111641606949999 Ba
atom_frac 0.9494149877670000 0.2549450294057124 0.9888358393050001 Ba
atom_frac 0.5505850122330008 0.7549450294057123 0.4888358393050006 Ba
atom_frac 0.4494149877670007 0.2549450294057123 0.5111641606949995 Ba
atom_frac 0.5085226344980364 0.9858154462327154 0.9938294776002546 Zr
atom_frac 0.4914773655019637 0.4858154462327155 0.0061705223997452 Zr
atom_frac 0.0085226344980363 0.9858154462327154 0.5061705223997452 Zr
atom_frac 0.9914773655019639 0.4858154462327155 0.4938294776002546 Zr
atom_frac 0.7110565441815945 0.0412926235435413 0.7068054243787235 S
atom_frac 0.7085455344104048 0.4743545783335408 0.7123019228892756 S
atom_frac 0.2914544655895953 0.9743545783335410 0.2876980771107245 S
atom_frac 0.2889434558184055 0.5412926235435408 0.2931945756212766 S
atom_frac 0.7914544655895954 0.9743545783335410 0.2123019228892756 S
atom_frac 0.7889434558184054 0.5412926235435408 0.2068054243787233 S
atom_frac 0.2110565441815945 0.0412926235435413 0.7931945756212767 S
atom_frac 0.2085455344104047 0.4743545783335408 0.7876980771107245 S
atom_frac 0.4945594743009995 0.7516142500833862 0.9363035490960007 S
atom_frac 0.5054405256990007 0.2516142500833864 0.0636964509040000 S
atom_frac 0.9945594743010000 0.7516142500833862 0.5636964509039992 S
atom_frac 0.0054405256990000 0.2516142500833864 0.4363035490960008 S
