#=======================================================
# FHI-aims file: geometry.in
# Created using the Atomic Simulation Environment (ASE)
# Mon May 20 17:49:13 2024
#=======================================================
lattice_vector 7.0729953411670001 0.0000000000000000 0.0000000000000000 
lattice_vector 0.0000000000000000 9.9271370448089993 0.0000000000000000 
lattice_vector 0.0000000000000000 0.0000000000000000 6.9499392683789996 
atom_frac 0.0505850122330001 0.7588304096530576 0.0111641606949999 Ba
atom_frac 0.9494149877670000 0.2588304096530579 0.9888358393050001 Ba
atom_frac 0.5505850122330008 0.7588304096530576 0.4888358393050005 Ba
atom_frac 0.4494149877670007 0.2588304096530578 0.5111641606949995 Ba
atom_frac 0.5152189901750648 0.9746704397012776 0.9889812100004548 Zr
atom_frac 0.4847810098249353 0.4746704397012776 0.0110187899995451 Zr
atom_frac 0.0152189901750648 0.9746704397012776 0.5110187899995451 Zr
atom_frac 0.9847810098249353 0.4746704397012777 0.4889812100004547 Zr
atom_frac 0.7120430123059904 0.0474397385666809 0.7046460856781493 S
atom_frac 0.7075590662860088 0.4805016933566804 0.7144612615898498 S
atom_frac 0.2924409337139914 0.9805016933566805 0.2855387384101504 S
atom_frac 0.2879569876940095 0.5474397385666805 0.2953539143218507 S
atom_frac 0.7924409337139914 0.9805016933566805 0.2144612615898497 S
atom_frac 0.7879569876940095 0.5474397385666805 0.2046460856781492 S
atom_frac 0.2120430123059905 0.0474397385666809 0.7953539143218509 S
atom_frac 0.2075590662860087 0.4805016933566804 0.7855387384101503 S
atom_frac 0.4945594743009996 0.7528825894346183 0.9363035490960006 S
atom_frac 0.5054405256990007 0.2528825894346186 0.0636964509040000 S
atom_frac 0.9945594743010001 0.7528825894346183 0.5636964509039992 S
atom_frac 0.0054405256990000 0.2528825894346186 0.4363035490960008 S
