#=======================================================
# FHI-aims file: geometry.in
# Created using the Atomic Simulation Environment (ASE)
# Mon May 20 17:49:17 2024
#=======================================================
lattice_vector 7.0729953411670001 0.0000000000000000 0.0000000000000000 
lattice_vector 0.0000000000000000 9.9271370448089993 0.0000000000000000 
lattice_vector 0.0000000000000000 0.0000000000000000 6.9499392683789996 
atom_frac 0.0505850122330000 0.7376374264857187 0.0111641606950002 Ba
atom_frac 0.9494149877669998 0.2376374264857190 0.9888358393050000 Ba
atom_frac 0.5505850122330006 0.7376374264857189 0.4888358393050006 Ba
atom_frac 0.4494149877670007 0.2376374264857190 0.5111641606949995 Ba
atom_frac 0.4786934137549093 0.0354613844182113 0.0154263059993633 Zr
atom_frac 0.5213065862450906 0.5354613844182113 0.9845736940006370 Zr
atom_frac 0.9786934137549094 0.0354613844182112 0.4845736940006368 Zr
atom_frac 0.0213065862450906 0.5354613844182112 0.5154263059993633 Zr
atom_frac 0.7066622770820122 0.0139100202586467 0.7164242967721899 S
atom_frac 0.7129398015099867 0.4469719750486463 0.7026830504958093 S
atom_frac 0.2870601984900129 0.9469719750486463 0.2973169495041908 S
atom_frac 0.2933377229179875 0.5139100202586462 0.2835757032278103 S
atom_frac 0.7870601984900129 0.9469719750486465 0.2026830504958092 S
atom_frac 0.7933377229179877 0.5139100202586462 0.2164242967721898 S
atom_frac 0.2066622770820123 0.0139100202586467 0.7835757032278102 S
atom_frac 0.2129398015099868 0.4469719750486463 0.7973169495041910 S
atom_frac 0.4945594743009994 0.7459643747915338 0.9363035490960008 S
atom_frac 0.5054405256990004 0.2459643747915340 0.0636964509040001 S
atom_frac 0.9945594743009999 0.7459643747915338 0.5636964509039993 S
atom_frac 0.0054405256990000 0.2459643747915340 0.4363035490960008 S
