#=======================================================
# FHI-aims file: geometry.in.supercell
# Created using the Atomic Simulation Environment (ASE)
# Thu May  9 14:06:12 2024

# Additional information:
#  Number of atoms:     80
#=======================================================
lattice_vector -7.0032220426620002 7.0032220426620002 10.2311036971299991 
lattice_vector 7.0032220426620002 -7.0032220426620002 10.2311036971299991 
lattice_vector 7.0032220426620002 7.0032220426620002 -10.2311036971299991 
atom 0.0000000000000004 3.5016110213310006 2.5577759242824993 Ba
atom -3.5016110213309992 7.0032220426620002 7.6733277728474985 Ba
atom 3.5016110213310001 0.0000000000000006 7.6733277728474985 Ba
atom 0.0000000000000006 3.5016110213310001 12.7888796214124980 Ba
atom 3.5016110213310001 7.0032220426620002 -2.5577759242824998 Ba
atom 0.0000000000000007 10.5048330639929990 2.5577759242824998 Ba
atom 7.0032220426620002 3.5016110213310006 2.5577759242824998 Ba
atom 3.5016110213310006 7.0032220426620002 7.6733277728474993 Ba
atom 3.5016110213310001 0.0000000000000000 2.5577759242824998 Ba
atom 0.0000000000000002 3.5016110213309997 7.6733277728474993 Ba
atom 7.0032220426620002 -3.5016110213310006 7.6733277728474993 Ba
atom 3.5016110213310006 -0.0000000000000002 12.7888796214124980 Ba
atom 7.0032220426620002 3.5016110213310001 -2.5577759242824998 Ba
atom 3.5016110213310006 7.0032220426620002 2.5577759242824998 Ba
atom 10.5048330639930008 -0.0000000000000002 2.5577759242824998 Ba
atom 7.0032220426620002 3.5016110213309997 7.6733277728474993 Ba
atom 0.0000000000000000 0.0000000000000000 0.0000000000000000 Zr
atom -3.5016110213310001 3.5016110213310001 5.1155518485649996 Zr
atom 3.5016110213310001 -3.5016110213310001 5.1155518485649996 Zr
atom 0.0000000000000000 0.0000000000000000 10.2311036971299991 Zr
atom 3.5016110213310001 3.5016110213310001 -5.1155518485649996 Zr
atom 0.0000000000000000 7.0032220426620002 0.0000000000000000 Zr
atom 7.0032220426620002 0.0000000000000000 0.0000000000000000 Zr
atom 3.5016110213310001 3.5016110213310001 5.1155518485649996 Zr
atom 0.0000000000000000 0.0000000000000000 5.1155518485649996 Zr
atom -3.5016110213310006 3.5016110213310006 10.2311036971299991 Zr
atom 3.5016110213310001 -3.5016110213310001 10.2311036971299991 Zr
atom -0.0000000000000002 0.0000000000000002 15.3466555456949987 Zr
atom 3.5016110213310001 3.5016110213310001 0.0000000000000000 Zr
atom -0.0000000000000004 7.0032220426620011 5.1155518485649996 Zr
atom 7.0032220426620002 0.0000000000000000 5.1155518485649996 Zr
atom 3.5016110213309997 3.5016110213310006 10.2311036971299991 Zr
atom 7.0032220426619993 7.0032220426620011 -2.5577759242824980 S
atom 3.5016110213310001 10.5048330639930008 2.5577759242825007 S
atom 10.5048330639929990 3.5016110213310010 2.5577759242825007 S
atom 7.0032220426619993 7.0032220426620011 7.6733277728475002 S
atom 3.5016110213309997 3.5016110213310006 2.5577759242825016 S
atom 0.0000000000000000 7.0032220426620002 7.6733277728475002 S
atom 7.0032220426619993 0.0000000000000009 7.6733277728475002 S
atom 3.5016110213309997 3.5016110213310006 12.7888796214124998 S
atom 0.0000000000000000 0.0000000000000000 2.5577759242824998 S
atom -3.5016110213310001 3.5016110213310001 7.6733277728474985 S
atom 3.5016110213310001 -3.5016110213310001 7.6733277728474993 S
atom 0.0000000000000001 -0.0000000000000001 12.7888796214124980 S
atom 3.5016110213310001 3.5016110213310001 -2.5577759242824998 S
atom 0.0000000000000000 7.0032220426620002 2.5577759242824989 S
atom 7.0032220426620002 0.0000000000000000 2.5577759242824998 S
atom 3.5016110213310001 3.5016110213310001 7.6733277728474985 S
atom 1.3716130609409001 2.1299979603900994 5.1155518485649996 S
atom -2.1299979603900989 5.6316089817210990 10.2311036971299991 S
atom 4.8732240822719008 -1.3716130609409012 10.2311036971300009 S
atom 1.3716130609409014 2.1299979603900985 15.3466555456950005 S
atom 4.8732240822719008 5.6316089817210999 0.0000000000000000 S
atom 1.3716130609409014 9.1332200030520987 5.1155518485649987 S
atom 8.3748351036029014 2.1299979603900994 5.1155518485650004 S
atom 4.8732240822719017 5.6316089817210990 10.2311036971299991 S
atom 2.1299979603900998 1.3716130609409001 0.0000000000000003 S
atom -1.3716130609409007 4.8732240822719008 5.1155518485650004 S
atom 5.6316089817210999 -2.1299979603901003 5.1155518485650004 S
atom 2.1299979603900994 1.3716130609409003 10.2311036971300009 S
atom 5.6316089817210999 4.8732240822719000 -5.1155518485649996 S
atom 2.1299979603900994 8.3748351036029014 0.0000000000000009 S
atom 9.1332200030521005 1.3716130609409001 0.0000000000000009 S
atom 5.6316089817210999 4.8732240822719008 5.1155518485650004 S
atom 2.1299979603900998 -1.3716130609409001 5.1155518485649996 S
atom -1.3716130609409005 2.1299979603901003 10.2311036971299991 S
atom 5.6316089817210990 -4.8732240822719000 10.2311036971299973 S
atom 2.1299979603900994 -1.3716130609408996 15.3466555456949987 S
atom 5.6316089817210999 2.1299979603900998 0.0000000000000001 S
atom 2.1299979603900994 5.6316089817210999 5.1155518485650004 S
atom 9.1332200030520987 -1.3716130609408999 5.1155518485649987 S
atom 5.6316089817210990 2.1299979603901003 10.2311036971300009 S
atom 1.3716130609409001 4.8732240822719000 0.0000000000000004 S
atom -2.1299979603901003 8.3748351036028996 5.1155518485650004 S
atom 4.8732240822719000 1.3716130609408999 5.1155518485650004 S
atom 1.3716130609409003 4.8732240822719000 10.2311036971300009 S
atom 4.8732240822719000 8.3748351036028996 -5.1155518485649987 S
atom 1.3716130609408994 11.8764461249339011 0.0000000000000019 S
atom 8.3748351036028996 4.8732240822719000 0.0000000000000019 S
atom 4.8732240822719000 8.3748351036028996 5.1155518485650013 S
