#=======================================================
# FHI-aims file: geometry.in
# Created using the Atomic Simulation Environment (ASE)
# Mon May 20 17:49:16 2024
#=======================================================
lattice_vector 7.0729953411670001 0.0000000000000000 0.0000000000000000 
lattice_vector 0.0000000000000000 9.9271370448089993 0.0000000000000000 
lattice_vector 0.0000000000000000 0.0000000000000000 6.9499392683789996 
atom_frac 0.0505850122330000 0.7418760231191865 0.0111641606950001 Ba
atom_frac 0.9494149877670000 0.2418760231191867 0.9888358393050001 Ba
atom_frac 0.5505850122330006 0.7418760231191867 0.4888358393050006 Ba
atom_frac 0.4494149877670007 0.2418760231191868 0.5111641606949995 Ba
atom_frac 0.4859985290389404 0.0233031954748246 0.0101372867995816 Zr
atom_frac 0.5140014709610595 0.5233031954748246 0.9898627132004186 Zr
atom_frac 0.9859985290389404 0.0233031954748245 0.4898627132004185 Zr
atom_frac 0.0140014709610595 0.5233031954748245 0.5101372867995817 Zr
atom_frac 0.7077384241268079 0.0206159639202535 0.7140686545533818 S
atom_frac 0.7118636544651911 0.4536779187102530 0.7050386927146174 S
atom_frac 0.2881363455348086 0.9536779187102531 0.2949613072853827 S
atom_frac 0.2922615758731920 0.5206159639202531 0.2859313454466184 S
atom_frac 0.7881363455348086 0.9536779187102531 0.2050386927146173 S
atom_frac 0.7922615758731919 0.5206159639202530 0.2140686545533817 S
atom_frac 0.2077384241268080 0.0206159639202535 0.7859313454466184 S
atom_frac 0.2118636544651912 0.4536779187102530 0.7949613072853828 S
atom_frac 0.4945594743009995 0.7473480177201508 0.9363035490960007 S
atom_frac 0.5054405256990006 0.2473480177201509 0.0636964509040001 S
atom_frac 0.9945594743009999 0.7473480177201508 0.5636964509039993 S
atom_frac 0.0054405256990000 0.2473480177201509 0.4363035490960008 S
