#=======================================================
# FHI-aims file: geometry.in
# Created using the Atomic Simulation Environment (ASE)
# Mon May 20 17:49:16 2024
#=======================================================
lattice_vector 7.0729953411670001 0.0000000000000000 0.0000000000000000 
lattice_vector 0.0000000000000000 9.9271370448089993 0.0000000000000000 
lattice_vector 0.0000000000000000 0.0000000000000000 6.9499392683789996 
atom_frac 0.0505850122330000 0.7432888886636758 0.0111641606950001 Ba
atom_frac 0.9494149877670000 0.2432888886636760 0.9888358393050001 Ba
atom_frac 0.5505850122330007 0.7432888886636759 0.4888358393050006 Ba
atom_frac 0.4494149877670007 0.2432888886636761 0.5111641606949995 Ba
atom_frac 0.4884335674669508 0.0192504658270290 0.0083742803996544 Zr
atom_frac 0.5115664325330492 0.5192504658270291 0.9916257196003457 Zr
atom_frac 0.9884335674669509 0.0192504658270290 0.4916257196003457 Zr
atom_frac 0.0115664325330492 0.5192504658270289 0.5083742803996544 Zr
atom_frac 0.7080971398084065 0.0228512784741225 0.7132834404804457 S
atom_frac 0.7115049387835926 0.4559132332641221 0.7058239067875534 S
atom_frac 0.2884950612164072 0.9559132332641221 0.2941760932124467 S
atom_frac 0.2919028601915934 0.5228512784741219 0.2867165595195544 S
atom_frac 0.7884950612164072 0.9559132332641221 0.2058239067875533 S
atom_frac 0.7919028601915935 0.5228512784741219 0.2132834404804456 S
atom_frac 0.2080971398084065 0.0228512784741225 0.7867165595195544 S
atom_frac 0.2115049387835927 0.4559132332641221 0.7941760932124468 S
atom_frac 0.4945594743009995 0.7478092320296897 0.9363035490960007 S
atom_frac 0.5054405256990006 0.2478092320296899 0.0636964509040001 S
atom_frac 0.9945594743009999 0.7478092320296897 0.5636964509039993 S
atom_frac 0.0054405256990000 0.2478092320296899 0.4363035490960008 S
