#=======================================================
# FHI-aims file: geometry.in
# Created using the Atomic Simulation Environment (ASE)
# Mon May 20 17:49:17 2024
#=======================================================
lattice_vector 7.0729953411670001 0.0000000000000000 0.0000000000000000 
lattice_vector 0.0000000000000000 9.9271370448089993 0.0000000000000000 
lattice_vector 0.0000000000000000 0.0000000000000000 6.9499392683789996 
atom_frac 0.0505850122330000 0.7362245609412295 0.0111641606950002 Ba
atom_frac 0.9494149877669998 0.2362245609412297 0.9888358393050000 Ba
atom_frac 0.5505850122330006 0.7362245609412297 0.4888358393050006 Ba
atom_frac 0.4494149877670007 0.2362245609412298 0.5111641606949995 Ba
atom_frac 0.4762583753268989 0.0395141140660069 0.0171893123992906 Zr
atom_frac 0.5237416246731009 0.5395141140660068 0.9828106876007097 Zr
atom_frac 0.9762583753268989 0.0395141140660068 0.4828106876007096 Zr
atom_frac 0.0237416246731009 0.5395141140660068 0.5171893123992907 Zr
atom_frac 0.7063035614004137 0.0116747057047778 0.7172095108451259 S
atom_frac 0.7132985171915852 0.4447366604947773 0.7018978364228732 S
atom_frac 0.2867014828084143 0.9447366604947773 0.2981021635771268 S
atom_frac 0.2936964385995862 0.5116747057047772 0.2827904891548743 S
atom_frac 0.7867014828084143 0.9447366604947773 0.2018978364228732 S
atom_frac 0.7936964385995862 0.5116747057047772 0.2172095108451259 S
atom_frac 0.2063035614004138 0.0116747057047777 0.7827904891548741 S
atom_frac 0.2132985171915854 0.4447366604947773 0.7981021635771269 S
atom_frac 0.4945594743009994 0.7455031604819948 0.9363035490960008 S
atom_frac 0.5054405256990004 0.2455031604819950 0.0636964509040001 S
atom_frac 0.9945594743009999 0.7455031604819948 0.5636964509039994 S
atom_frac 0.0054405256990000 0.2455031604819950 0.4363035490960008 S
