#=======================================================
# FHI-aims file: geometry.in
# Created using the Atomic Simulation Environment (ASE)
# Mon May 20 17:49:12 2024
#=======================================================
lattice_vector 7.0729953411670001 0.0000000000000000 0.0000000000000000 
lattice_vector 0.0000000000000000 9.9271370448089993 0.0000000000000000 
lattice_vector 0.0000000000000000 0.0000000000000000 6.9499392683789996 
atom_frac 0.0505850122330001 0.7641286554448925 0.0111641606949998 Ba
atom_frac 0.9494149877670001 0.2641286554448926 0.9888358393050002 Ba
atom_frac 0.5505850122330009 0.7641286554448924 0.4888358393050005 Ba
atom_frac 0.4494149877670007 0.2641286554448925 0.5111641606949995 Ba
atom_frac 0.5243503842801037 0.9594727035220443 0.9823699360007276 Zr
atom_frac 0.4756496157198964 0.4594727035220442 0.0176300639992721 Zr
atom_frac 0.0243503842801038 0.9594727035220443 0.5176300639992722 Zr
atom_frac 0.9756496157198965 0.4594727035220442 0.4823699360007275 Zr
atom_frac 0.7133881961119850 0.0558221681436894 0.7017015329046392 S
atom_frac 0.7062138824800144 0.4888841229336890 0.7174058143633598 S
atom_frac 0.2937861175199860 0.9888841229336891 0.2825941856366403 S
atom_frac 0.2866118038880150 0.5558221681436889 0.2982984670953607 S
atom_frac 0.7937861175199861 0.9888841229336891 0.2174058143633598 S
atom_frac 0.7866118038880149 0.5558221681436889 0.2017015329046391 S
atom_frac 0.2133881961119851 0.0558221681436895 0.7982984670953609 S
atom_frac 0.2062138824800142 0.4888841229336890 0.7825941856366403 S
atom_frac 0.4945594743009996 0.7546121430953896 0.9363035490960006 S
atom_frac 0.5054405256990007 0.2546121430953897 0.0636964509040000 S
atom_frac 0.9945594743010001 0.7546121430953896 0.5636964509039992 S
atom_frac 0.0054405256990000 0.2546121430953898 0.4363035490960008 S
