#=======================================================
# FHI-aims file: geometry.in
# Created using the Atomic Simulation Environment (ASE)
# Mon May 20 17:49:16 2024
#=======================================================
lattice_vector 7.0729953411670001 0.0000000000000000 0.0000000000000000 
lattice_vector 0.0000000000000000 9.9271370448089993 0.0000000000000000 
lattice_vector 0.0000000000000000 0.0000000000000000 6.9499392683789996 
atom_frac 0.0505850122330000 0.7404631575746973 0.0111641606950001 Ba
atom_frac 0.9494149877669998 0.2404631575746975 0.9888358393050000 Ba
atom_frac 0.5505850122330006 0.7404631575746974 0.4888358393050006 Ba
atom_frac 0.4494149877670007 0.2404631575746976 0.5111641606949995 Ba
atom_frac 0.4835634906109300 0.0273559251226201 0.0119002931995088 Zr
atom_frac 0.5164365093890699 0.5273559251226202 0.9880997068004913 Zr
atom_frac 0.9835634906109301 0.0273559251226201 0.4880997068004913 Zr
atom_frac 0.0164365093890699 0.5273559251226201 0.5119002931995089 Zr
atom_frac 0.7073797084452095 0.0183806493663846 0.7148538686263178 S
atom_frac 0.7122223701467897 0.4514426041563843 0.7042534786416813 S
atom_frac 0.2877776298532100 0.9514426041563843 0.2957465213583187 S
atom_frac 0.2926202915547905 0.5183806493663841 0.2851461313736824 S
atom_frac 0.7877776298532101 0.9514426041563843 0.2042534786416813 S
atom_frac 0.7926202915547905 0.5183806493663841 0.2148538686263178 S
atom_frac 0.2073797084452094 0.0183806493663846 0.7851461313736824 S
atom_frac 0.2122223701467898 0.4514426041563843 0.7957465213583189 S
atom_frac 0.4945594743009994 0.7468868034106118 0.9363035490960008 S
atom_frac 0.5054405256990006 0.2468868034106119 0.0636964509040001 S
atom_frac 0.9945594743009999 0.7468868034106118 0.5636964509039993 S
atom_frac 0.0054405256990000 0.2468868034106119 0.4363035490960008 S
