#=======================================================
# FHI-aims file: geometry.in
# Created using the Atomic Simulation Environment (ASE)
# Mon May 20 17:49:17 2024
#=======================================================
lattice_vector 7.0729953411670001 0.0000000000000000 0.0000000000000000 
lattice_vector 0.0000000000000000 9.9271370448089993 0.0000000000000000 
lattice_vector 0.0000000000000000 0.0000000000000000 6.9499392683789996 
atom_frac 0.0505850122330000 0.7372842100995964 0.0111641606950002 Ba
atom_frac 0.9494149877669998 0.2372842100995966 0.9888358393050000 Ba
atom_frac 0.5505850122330006 0.7372842100995964 0.4888358393050006 Ba
atom_frac 0.4494149877670007 0.2372842100995967 0.5111641606949995 Ba
atom_frac 0.4780846541479067 0.0364745668301602 0.0158670575993451 Zr
atom_frac 0.5219153458520932 0.5364745668301600 0.9841329424006551 Zr
atom_frac 0.9780846541479066 0.0364745668301601 0.4841329424006550 Zr
atom_frac 0.0219153458520931 0.5364745668301600 0.5158670575993453 Zr
atom_frac 0.7065725981616127 0.0133511916201795 0.7166206002904240 S
atom_frac 0.7130294804303863 0.4464131464101790 0.7024867469775753 S
atom_frac 0.2869705195696133 0.9464131464101790 0.2975132530224248 S
atom_frac 0.2934274018383871 0.5133511916201789 0.2833793997095763 S
atom_frac 0.7869705195696133 0.9464131464101790 0.2024867469775752 S
atom_frac 0.7934274018383872 0.5133511916201789 0.2166206002904238 S
atom_frac 0.2065725981616127 0.0133511916201794 0.7833793997095764 S
atom_frac 0.2130294804303865 0.4464131464101790 0.7975132530224248 S
atom_frac 0.4945594743009994 0.7458490712141491 0.9363035490960008 S
atom_frac 0.5054405256990004 0.2458490712141492 0.0636964509040001 S
atom_frac 0.9945594743009999 0.7458490712141491 0.5636964509039993 S
atom_frac 0.0054405256990000 0.2458490712141492 0.4363035490960008 S
