#=======================================================
# FHI-aims file: geometry.in
# Created using the Atomic Simulation Environment (ASE)
# Mon May 20 17:49:13 2024
#=======================================================
lattice_vector 7.0729953411670001 0.0000000000000000 0.0000000000000000 
lattice_vector 0.0000000000000000 9.9271370448089993 0.0000000000000000 
lattice_vector 0.0000000000000000 0.0000000000000000 6.9499392683789996 
atom_frac 0.0505850122330001 0.7605964915836694 0.0111641606949999 Ba
atom_frac 0.9494149877670001 0.2605964915836694 0.9888358393050002 Ba
atom_frac 0.5505850122330008 0.7605964915836693 0.4888358393050005 Ba
atom_frac 0.4494149877670007 0.2605964915836694 0.5111641606949995 Ba
atom_frac 0.5182627882100779 0.9696045276415330 0.9867774520005458 Zr
atom_frac 0.4817372117899223 0.4696045276415332 0.0132225479994541 Zr
atom_frac 0.0182627882100778 0.9696045276415333 0.5132225479994542 Zr
atom_frac 0.9817372117899223 0.4696045276415332 0.4867774520005457 Zr
atom_frac 0.7124914069079887 0.0502338817590170 0.7036645680869792 S
atom_frac 0.7071106716840106 0.4832958365490167 0.7154427791810197 S
atom_frac 0.2928893283159896 0.9832958365490168 0.2845572208189803 S
atom_frac 0.2875085930920113 0.5502338817590167 0.2963354319130207 S
atom_frac 0.7928893283159896 0.9832958365490168 0.2154427791810197 S
atom_frac 0.7875085930920113 0.5502338817590167 0.2036645680869792 S
atom_frac 0.2124914069079887 0.0502338817590171 0.7963354319130209 S
atom_frac 0.2071106716840105 0.4832958365490167 0.7845572208189803 S
atom_frac 0.4945594743009996 0.7534591073215420 0.9363035490960006 S
atom_frac 0.5054405256990007 0.2534591073215423 0.0636964509040000 S
atom_frac 0.9945594743010001 0.7534591073215420 0.5636964509039992 S
atom_frac 0.0054405256990000 0.2534591073215423 0.4363035490960008 S
