#=======================================================
# FHI-aims file: ./geometry.in
# Created using the Atomic Simulation Environment (ASE)
# Tue Apr 30 03:54:50 2024
#=======================================================
lattice_vector -3.5016110213310010 3.5016110213310010 5.1155518485649996 
lattice_vector 3.5016110213310010 -3.5016110213310010 5.1155518485649996 
lattice_vector 3.5016110213310010 3.5016110213310010 -5.1155518485649996 
atom_frac 0.7500000000000000 0.2500000000000000 0.4999999999999999 Ba
atom_frac 0.2500000000000000 0.7500000000000000 0.4999999999999999 Ba
atom_frac 0.0000000000000000 -0.0000000000000000 -0.0000000000000000 Zr
atom_frac 0.5000000000000000 0.5000000000000000 0.0000000000000000 Zr
atom_frac 0.7500000000000000 0.7500000000000000 0.0000000000000000 S
atom_frac 0.2500000000000001 0.2500000000000000 -0.0000000000000000 S
atom_frac 0.8041454272640006 0.6958545727359995 0.5000000000000000 S
atom_frac 0.1958545727359995 0.3041454272640005 0.5000000000000000 S
atom_frac 0.3041454272640005 0.8041454272640005 0.1082908545280010 S
atom_frac 0.6958545727359995 0.1958545727359994 0.8917091454719988 S
