#=======================================================
# FHI-aims file: ./geometry.in
# Created using the Atomic Simulation Environment (ASE)
# Thu May  2 16:04:55 2024
#=======================================================
lattice_vector 7.1257885827408929 0.0000000000000000 0.0000000000000000 
lattice_vector -0.0000000000000000 10.0197088334130076 0.0000000000000000 
lattice_vector 0.0000000000000000 0.0000000000000000 7.0421289241258522 
atom_frac 0.0444293977037131 0.7500000000000000 0.0094010654921544 Ba
atom_frac -0.0444293977037126 0.2500000000000001 -0.0094010654921536 Ba
atom_frac 0.5444293977037130 0.7500000000000000 0.4905989345078462 Ba
atom_frac 0.4555706022962873 0.2500000000000001 0.5094010654921544 Ba
atom_frac 0.5000000000000001 0.0000000000000002 0.0000000000000003 Zr
atom_frac 0.5000000000000001 0.5000000000000001 0.0000000000000003 Zr
atom_frac 0.0000000000000002 0.0000000000000002 0.5000000000000003 Zr
atom_frac 0.0000000000000002 0.5000000000000001 0.5000000000000003 Zr
atom_frac 0.7127893736203096 0.0323069722523480 0.7128992407255663 S
atom_frac 0.7127893736203096 0.4676930277476523 0.7128992407255663 S
atom_frac 0.2872106263796909 0.9676930277476518 0.2871007592744343 S
atom_frac 0.2872106263796909 0.5323069722523479 0.2871007592744343 S
atom_frac 0.7872106263796909 0.9676930277476518 0.2128992407255665 S
atom_frac 0.7872106263796909 0.5323069722523479 0.2128992407255665 S
atom_frac 0.2127893736203094 0.0323069722523480 0.7871007592744343 S
atom_frac 0.2127893736203094 0.4676930277476523 0.7871007592744343 S
atom_frac 0.4937254190418895 0.7500000000000000 0.9383265485158809 S
atom_frac 0.5062745809581110 0.2500000000000001 0.0616734514841196 S
atom_frac -0.0062745809581105 0.7500000000000000 0.5616734514841195 S
atom_frac 0.0062745809581109 0.2500000000000001 0.4383265485158810 S
