#=======================================================
# FHI-aims file: ./geometry.in
# Created using the Atomic Simulation Environment (ASE)
# Thu May  9 09:37:07 2024
#=======================================================
lattice_vector 14.2515771654820007 0.0000000000000000 0.0000000000000000 
lattice_vector 0.0000000000000000 20.0394176668260009 0.0000000000000000 
lattice_vector 0.0000000000000000 0.0000000000000000 14.0842578482519993 
atom_frac 0.0222146988520000 0.3750000000000000 0.0047005327460000 Ba
atom_frac 0.5222146988520000 0.3750000000000000 0.0047005327460000 Ba
atom_frac 0.0222146988520000 0.8749999999999999 0.0047005327460000 Ba
atom_frac 0.5222146988520000 0.8749999999999999 0.0047005327460000 Ba
atom_frac 0.0222146988520000 0.3750000000000000 0.5047005327460000 Ba
atom_frac 0.5222146988520000 0.3750000000000000 0.5047005327460000 Ba
atom_frac 0.0222146988520000 0.8749999999999999 0.5047005327460000 Ba
atom_frac 0.5222146988520000 0.8749999999999999 0.5047005327460000 Ba
atom_frac 0.9777853011480000 0.1250000000000000 0.9952994672540000 Ba
atom_frac 0.4777853011480000 0.1250000000000000 0.9952994672540000 Ba
atom_frac 0.9777853011480000 0.6249999999999999 0.9952994672540000 Ba
atom_frac 0.4777853011480000 0.6249999999999999 0.9952994672540000 Ba
atom_frac 0.9777853011480000 0.1250000000000000 0.4952994672540000 Ba
atom_frac 0.4777853011480000 0.1250000000000000 0.4952994672540000 Ba
atom_frac 0.9777853011480000 0.6249999999999999 0.4952994672540000 Ba
atom_frac 0.4777853011480000 0.6249999999999999 0.4952994672540000 Ba
atom_frac 0.2722146988520000 0.3750000000000000 0.2452994672540000 Ba
atom_frac 0.7722146988520000 0.3750000000000000 0.2452994672540000 Ba
atom_frac 0.2722146988520000 0.8749999999999999 0.2452994672540000 Ba
atom_frac 0.7722146988520000 0.8749999999999999 0.2452994672540000 Ba
atom_frac 0.2722146988520000 0.3750000000000000 0.7452994672540000 Ba
atom_frac 0.7722146988520000 0.3750000000000000 0.7452994672540000 Ba
atom_frac 0.2722146988520000 0.8749999999999999 0.7452994672540000 Ba
atom_frac 0.7722146988520000 0.8749999999999999 0.7452994672540000 Ba
atom_frac 0.2277853011479999 0.1250000000000000 0.2547005327460000 Ba
atom_frac 0.7277853011479998 0.1250000000000000 0.2547005327460000 Ba
atom_frac 0.2277853011479999 0.6249999999999999 0.2547005327460000 Ba
atom_frac 0.7277853011479998 0.6249999999999999 0.2547005327460000 Ba
atom_frac 0.2277853011479999 0.1250000000000000 0.7547005327460000 Ba
atom_frac 0.7277853011479998 0.1250000000000000 0.7547005327460000 Ba
atom_frac 0.2277853011479999 0.6249999999999999 0.7547005327460000 Ba
atom_frac 0.7277853011479998 0.6249999999999999 0.7547005327460000 Ba
atom_frac 0.2500000000000000 0.0000000000000000 0.0000000000000000 Zr
atom_frac 0.7499999999999999 0.0000000000000000 0.0000000000000000 Zr
atom_frac 0.2500000000000000 0.5000000000000000 0.0000000000000000 Zr
atom_frac 0.7499999999999999 0.5000000000000000 0.0000000000000000 Zr
atom_frac 0.2500000000000000 0.0000000000000000 0.5000000000000000 Zr
atom_frac 0.7499999999999999 0.0000000000000000 0.5000000000000000 Zr
atom_frac 0.2500000000000000 0.5000000000000000 0.5000000000000000 Zr
atom_frac 0.7499999999999999 0.5000000000000000 0.5000000000000000 Zr
atom_frac 0.2500000000000000 0.2500000000000000 0.0000000000000000 Zr
atom_frac 0.7499999999999999 0.2500000000000000 0.0000000000000000 Zr
atom_frac 0.2500000000000000 0.7500000000000000 0.0000000000000000 Zr
atom_frac 0.7499999999999999 0.7500000000000000 0.0000000000000000 Zr
atom_frac 0.2500000000000000 0.2500000000000000 0.5000000000000000 Zr
atom_frac 0.7499999999999999 0.2500000000000000 0.5000000000000000 Zr
atom_frac 0.2500000000000000 0.7500000000000000 0.5000000000000000 Zr
atom_frac 0.7499999999999999 0.7500000000000000 0.5000000000000000 Zr
atom_frac 0.0000000000000000 0.0000000000000000 0.2500000000000000 Zr
atom_frac 0.5000000000000000 0.0000000000000000 0.2500000000000000 Zr
atom_frac 0.0000000000000000 0.5000000000000000 0.2500000000000000 Zr
atom_frac 0.5000000000000000 0.5000000000000000 0.2500000000000000 Zr
atom_frac 0.0000000000000000 0.0000000000000000 0.7500000000000000 Zr
atom_frac 0.5000000000000000 0.0000000000000000 0.7500000000000000 Zr
atom_frac 0.0000000000000000 0.5000000000000000 0.7500000000000000 Zr
atom_frac 0.5000000000000000 0.5000000000000000 0.7500000000000000 Zr
atom_frac 0.0000000000000000 0.2500000000000000 0.2500000000000000 Zr
atom_frac 0.5000000000000000 0.2500000000000000 0.2500000000000000 Zr
atom_frac 0.0000000000000000 0.7500000000000000 0.2500000000000000 Zr
atom_frac 0.5000000000000000 0.7500000000000000 0.2500000000000000 Zr
atom_frac 0.0000000000000000 0.2500000000000000 0.7500000000000000 Zr
atom_frac 0.5000000000000000 0.2500000000000000 0.7500000000000000 Zr
atom_frac 0.0000000000000000 0.7500000000000000 0.7500000000000000 Zr
atom_frac 0.5000000000000000 0.7500000000000000 0.7500000000000000 Zr
atom_frac 0.3563946868100000 0.0161534861260000 0.3564496203630000 S
atom_frac 0.8563946868099999 0.0161534861260000 0.3564496203630000 S
atom_frac 0.3563946868100000 0.5161534861260000 0.3564496203630000 S
atom_frac 0.8563946868099999 0.5161534861260000 0.3564496203630000 S
atom_frac 0.3563946868100000 0.0161534861260000 0.8564496203630002 S
atom_frac 0.8563946868099999 0.0161534861260000 0.8564496203630002 S
atom_frac 0.3563946868100000 0.5161534861260000 0.8564496203630002 S
atom_frac 0.8563946868099999 0.5161534861260000 0.8564496203630002 S
atom_frac 0.3563946868100000 0.2338465138740000 0.3564496203630000 S
atom_frac 0.8563946868099999 0.2338465138740000 0.3564496203630000 S
atom_frac 0.3563946868100000 0.7338465138740000 0.3564496203630000 S
atom_frac 0.8563946868099999 0.7338465138740000 0.3564496203630000 S
atom_frac 0.3563946868100000 0.2338465138740000 0.8564496203630002 S
atom_frac 0.8563946868099999 0.2338465138740000 0.8564496203630002 S
atom_frac 0.3563946868100000 0.7338465138740000 0.8564496203630002 S
atom_frac 0.8563946868099999 0.7338465138740000 0.8564496203630002 S
atom_frac 0.1436053131900000 0.4838465138740000 0.1435503796370000 S
atom_frac 0.6436053131900000 0.4838465138740000 0.1435503796370000 S
atom_frac 0.1436053131900000 0.9838465138739998 0.1435503796370000 S
atom_frac 0.6436053131900000 0.9838465138739998 0.1435503796370000 S
atom_frac 0.1436053131900000 0.4838465138740000 0.6435503796370000 S
atom_frac 0.6436053131900000 0.4838465138740000 0.6435503796370000 S
atom_frac 0.1436053131900000 0.9838465138739998 0.6435503796370000 S
atom_frac 0.6436053131900000 0.9838465138739998 0.6435503796370000 S
atom_frac 0.1436053131900000 0.2661534861260000 0.1435503796370000 S
atom_frac 0.6436053131900000 0.2661534861260000 0.1435503796370000 S
atom_frac 0.1436053131900000 0.7661534861259999 0.1435503796370000 S
atom_frac 0.6436053131900000 0.7661534861259999 0.1435503796370000 S
atom_frac 0.1436053131900000 0.2661534861260000 0.6435503796370000 S
atom_frac 0.6436053131900000 0.2661534861260000 0.6435503796370000 S
atom_frac 0.1436053131900000 0.7661534861259999 0.6435503796370000 S
atom_frac 0.6436053131900000 0.7661534861259999 0.6435503796370000 S
atom_frac 0.3936053131900000 0.4838465138740000 0.1064496203630000 S
atom_frac 0.8936053131899999 0.4838465138740000 0.1064496203630000 S
atom_frac 0.3936053131900000 0.9838465138739998 0.1064496203630000 S
atom_frac 0.8936053131899999 0.9838465138739998 0.1064496203630000 S
atom_frac 0.3936053131900000 0.4838465138740000 0.6064496203630000 S
atom_frac 0.8936053131899999 0.4838465138740000 0.6064496203630000 S
atom_frac 0.3936053131900000 0.9838465138739998 0.6064496203630000 S
atom_frac 0.8936053131899999 0.9838465138739998 0.6064496203630000 S
atom_frac 0.3936053131900000 0.2661534861260000 0.1064496203630000 S
atom_frac 0.8936053131899999 0.2661534861260000 0.1064496203630000 S
atom_frac 0.3936053131900000 0.7661534861259999 0.1064496203630000 S
atom_frac 0.8936053131899999 0.7661534861259999 0.1064496203630000 S
atom_frac 0.3936053131900000 0.2661534861260000 0.6064496203630000 S
atom_frac 0.8936053131899999 0.2661534861260000 0.6064496203630000 S
atom_frac 0.3936053131900000 0.7661534861259999 0.6064496203630000 S
atom_frac 0.8936053131899999 0.7661534861259999 0.6064496203630000 S
atom_frac 0.1063946868100000 0.0161534861260000 0.3935503796370000 S
atom_frac 0.6063946868100000 0.0161534861260000 0.3935503796370000 S
atom_frac 0.1063946868100000 0.5161534861260000 0.3935503796370000 S
atom_frac 0.6063946868100000 0.5161534861260000 0.3935503796370000 S
atom_frac 0.1063946868100000 0.0161534861260000 0.8935503796370001 S
atom_frac 0.6063946868100000 0.0161534861260000 0.8935503796370001 S
atom_frac 0.1063946868100000 0.5161534861260000 0.8935503796370001 S
atom_frac 0.6063946868100000 0.5161534861260000 0.8935503796370001 S
atom_frac 0.1063946868100000 0.2338465138740000 0.3935503796370000 S
atom_frac 0.6063946868100000 0.2338465138740000 0.3935503796370000 S
atom_frac 0.1063946868100000 0.7338465138740000 0.3935503796370000 S
atom_frac 0.6063946868100000 0.7338465138740000 0.3935503796370000 S
atom_frac 0.1063946868100000 0.2338465138740000 0.8935503796370001 S
atom_frac 0.6063946868100000 0.2338465138740000 0.8935503796370001 S
atom_frac 0.1063946868100000 0.7338465138740000 0.8935503796370001 S
atom_frac 0.6063946868100000 0.7338465138740000 0.8935503796370001 S
atom_frac 0.2468627095209999 0.3750000000000000 0.4684532616959082 S
atom_frac 0.7468627095210000 0.3750000000000000 0.4691632742580000 S
atom_frac 0.2468627095209999 0.8749999999999999 0.4691632742580000 S
atom_frac 0.7468627095210000 0.8749999999999999 0.4691632742580000 S
atom_frac 0.2468627095209999 0.3750000000000000 0.9691632742580003 S
atom_frac 0.7468627095210000 0.3750000000000000 0.9691632742580003 S
atom_frac 0.2468627095209999 0.8749999999999999 0.9691632742580003 S
atom_frac 0.7468627095210000 0.8749999999999999 0.9691632742580003 S
atom_frac 0.2531372904790000 0.1250000000000000 0.0308367257420000 S
atom_frac 0.7531372904790000 0.1250000000000000 0.0308367257420000 S
atom_frac 0.2531372904790000 0.6249999999999999 0.0308367257420000 S
atom_frac 0.7531372904790000 0.6249999999999999 0.0308367257420000 S
atom_frac 0.2531372904790000 0.1250000000000000 0.5308367257420000 S
atom_frac 0.7531372904790000 0.1250000000000000 0.5308367257420000 S
atom_frac 0.2531372904790000 0.6249999999999999 0.5308367257420000 S
atom_frac 0.7531372904790000 0.6249999999999999 0.5308367257420000 S
atom_frac 0.9968627095210000 0.3750000000000000 0.2808367257420000 S
atom_frac 0.4968627095209999 0.3750000000000000 0.2808367257420000 S
atom_frac 0.9968627095210000 0.8749999999999999 0.2808367257420000 S
atom_frac 0.4968627095209999 0.8749999999999999 0.2808367257420000 S
atom_frac 0.9968627095210000 0.3750000000000000 0.7808367257420000 S
atom_frac 0.4968627095209999 0.3750000000000000 0.7808367257420000 S
atom_frac 0.9968627095210000 0.8749999999999999 0.7808367257420000 S
atom_frac 0.4968627095209999 0.8749999999999999 0.7808367257420000 S
atom_frac 0.0031372904790000 0.1250000000000000 0.2191632742580000 S
atom_frac 0.5031372904790000 0.1250000000000000 0.2191632742580000 S
atom_frac 0.0031372904790000 0.6249999999999999 0.2191632742580000 S
atom_frac 0.5031372904790000 0.6249999999999999 0.2191632742580000 S
atom_frac 0.0031372904790000 0.1250000000000000 0.7191632742580000 S
atom_frac 0.5031372904790000 0.1250000000000000 0.7191632742580000 S
atom_frac 0.0031372904790000 0.6249999999999999 0.7191632742580000 S
atom_frac 0.5031372904790000 0.6249999999999999 0.7191632742580000 S
