#=======================================================
# FHI-aims file: geometry.in
# Created using the Atomic Simulation Environment (ASE)
# Mon May 20 17:49:15 2024
#=======================================================
lattice_vector 7.0729953411670001 0.0000000000000000 0.0000000000000000 
lattice_vector 0.0000000000000000 9.9271370448089993 0.0000000000000000 
lattice_vector 0.0000000000000000 0.0000000000000000 6.9499392683789996 
atom_frac 0.0505850122330000 0.7507064327722445 0.0111641606950000 Ba
atom_frac 0.9494149877670000 0.2507064327722446 0.9888358393050001 Ba
atom_frac 0.5505850122330007 0.7507064327722445 0.4888358393050006 Ba
atom_frac 0.4494149877670007 0.2507064327722446 0.5111641606949995 Ba
atom_frac 0.5012175192140051 0.9979736351761022 0.9991184968000364 Zr
atom_frac 0.4987824807859949 0.4979736351761022 0.0008815031999636 Zr
atom_frac 0.0012175192140052 0.9979736351761022 0.5008815031999636 Zr
atom_frac 0.9987824807859949 0.4979736351761022 0.4991184968000364 Zr
atom_frac 0.7099803971367988 0.0345866798819344 0.7091610665975315 S
atom_frac 0.7096216814552003 0.4676486346719340 0.7099462806704676 S
atom_frac 0.2903783185447996 0.9676486346719342 0.2900537193295325 S
atom_frac 0.2900196028632011 0.5345866798819340 0.2908389334024686 S
atom_frac 0.7903783185447997 0.9676486346719342 0.2099462806704675 S
atom_frac 0.7900196028632011 0.5345866798819340 0.2091610665975314 S
atom_frac 0.2099803971367989 0.0345866798819344 0.7908389334024686 S
atom_frac 0.2096216814552004 0.4676486346719340 0.7900537193295326 S
atom_frac 0.4945594743009995 0.7502306071547693 0.9363035490960007 S
atom_frac 0.5054405256990006 0.2502306071547695 0.0636964509040001 S
atom_frac 0.9945594743010000 0.7502306071547693 0.5636964509039993 S
atom_frac 0.0054405256990000 0.2502306071547695 0.4363035490960008 S
