#=======================================================
# FHI-aims file: geometry.in
# Created using the Atomic Simulation Environment (ASE)
# Mon May 20 17:49:14 2024
#=======================================================
lattice_vector 7.0729953411670001 0.0000000000000000 0.0000000000000000 
lattice_vector 0.0000000000000000 9.9271370448089993 0.0000000000000000 
lattice_vector 0.0000000000000000 0.0000000000000000 6.9499392683789996 
atom_frac 0.0505850122330001 0.7524725147028560 0.0111641606950000 Ba
atom_frac 0.9494149877670000 0.2524725147028562 0.9888358393050001 Ba
atom_frac 0.5505850122330008 0.7524725147028560 0.4888358393050006 Ba
atom_frac 0.4494149877670007 0.2524725147028562 0.5111641606949995 Ba
atom_frac 0.5042613172490181 0.9929077231163578 0.9969147388001274 Zr
atom_frac 0.4957386827509819 0.4929077231163577 0.0030852611998726 Zr
atom_frac 0.0042613172490182 0.9929077231163578 0.5030852611998726 Zr
atom_frac 0.9957386827509819 0.4929077231163577 0.4969147388001273 Zr
atom_frac 0.7104287917387971 0.0373808230742706 0.7081795490063615 S
atom_frac 0.7091732868532022 0.4704427778642701 0.7109277982616377 S
atom_frac 0.2908267131467979 0.9704427778642702 0.2890722017383625 S
atom_frac 0.2895712082612029 0.5373808230742702 0.2918204509936386 S
atom_frac 0.7908267131467979 0.9704427778642702 0.2109277982616375 S
atom_frac 0.7895712082612029 0.5373808230742702 0.2081795490063614 S
atom_frac 0.2104287917387971 0.0373808230742706 0.7918204509936387 S
atom_frac 0.2091732868532022 0.4704427778642701 0.7890722017383625 S
atom_frac 0.4945594743009995 0.7508071250416930 0.9363035490960007 S
atom_frac 0.5054405256990006 0.2508071250416932 0.0636964509040000 S
atom_frac 0.9945594743010000 0.7508071250416930 0.5636964509039993 S
atom_frac 0.0054405256990000 0.2508071250416932 0.4363035490960008 S
