#=======================================================
# FHI-aims file: ./geometry.in
# Created using the Atomic Simulation Environment (ASE)
# Mon May 20 15:37:07 2024
#=======================================================
lattice_vector 14.1459906823340003 0.0000000000000000 0.0000000000000000 
lattice_vector 0.0000000000000000 19.8542740896179986 0.0000000000000000 
lattice_vector 0.0000000000000000 0.0000000000000000 13.8998785367579991 
atom_frac 0.0252925061165000 0.3749999999999999 0.0055820803475000 Ba
atom_frac 0.5252925061165000 0.3749999999999999 0.0055820803475000 Ba
atom_frac 0.0252925061165000 0.8750000000000000 0.0055820803475000 Ba
atom_frac 0.5252925061165000 0.8750000000000000 0.0055820803475000 Ba
atom_frac 0.0252925061165000 0.3749999999999999 0.5055820803475000 Ba
atom_frac 0.5252925061165000 0.3749999999999999 0.5055820803475000 Ba
atom_frac 0.0252925061165000 0.8750000000000000 0.5055820803475000 Ba
atom_frac 0.5252925061165000 0.8750000000000000 0.5055820803475000 Ba
atom_frac 0.9747074938835000 0.1250000000000000 0.9944179196525000 Ba
atom_frac 0.4747074938835000 0.1250000000000000 0.9944179196525000 Ba
atom_frac 0.9747074938835000 0.6250000000000000 0.9944179196525000 Ba
atom_frac 0.4747074938835000 0.6250000000000000 0.9944179196525000 Ba
atom_frac 0.9747074938835000 0.1250000000000000 0.4944179196525000 Ba
atom_frac 0.4747074938835000 0.1250000000000000 0.4944179196525000 Ba
atom_frac 0.9747074938835000 0.6250000000000000 0.4944179196525000 Ba
atom_frac 0.4747074938835000 0.6250000000000000 0.4944179196525000 Ba
atom_frac 0.2752925061165000 0.3749999999999999 0.2444179196525000 Ba
atom_frac 0.7752925061165000 0.3749999999999999 0.2444179196525000 Ba
atom_frac 0.2752925061165000 0.8750000000000000 0.2444179196525000 Ba
atom_frac 0.7752925061165000 0.8750000000000000 0.2444179196525000 Ba
atom_frac 0.2752925061165000 0.3749999999999999 0.7444179196525001 Ba
atom_frac 0.7752925061165000 0.3749999999999999 0.7444179196525001 Ba
atom_frac 0.2752925061165000 0.8750000000000000 0.7444179196525001 Ba
atom_frac 0.7752925061165000 0.8750000000000000 0.7444179196525001 Ba
atom_frac 0.2247074938835000 0.1250000000000000 0.2555820803475000 Ba
atom_frac 0.7247074938835000 0.1250000000000000 0.2555820803475000 Ba
atom_frac 0.2247074938835000 0.6250000000000000 0.2555820803475000 Ba
atom_frac 0.7247074938835000 0.6250000000000000 0.2555820803475000 Ba
atom_frac 0.2247074938835000 0.1250000000000000 0.7555820803475000 Ba
atom_frac 0.7247074938835000 0.1250000000000000 0.7555820803475000 Ba
atom_frac 0.2247074938835000 0.6250000000000000 0.7555820803475000 Ba
atom_frac 0.7247074938835000 0.6250000000000000 0.7555820803475000 Ba
atom_frac 0.2500000000000000 0.0000000000000000 0.0000000000000000 Zr
atom_frac 0.7500000000000000 0.0000000000000000 0.0000000000000000 Zr
atom_frac 0.2500000000000000 0.5000000000000000 0.0000000000000000 Zr
atom_frac 0.7500000000000000 0.5000000000000000 0.0000000000000000 Zr
atom_frac 0.2500000000000000 0.0000000000000000 0.5000000000000000 Zr
atom_frac 0.7500000000000000 0.0000000000000000 0.5000000000000000 Zr
atom_frac 0.2500000000000000 0.5000000000000000 0.5000000000000000 Zr
atom_frac 0.7500000000000000 0.5000000000000000 0.5000000000000000 Zr
atom_frac 0.2500000000000000 0.2500000000000000 0.0000000000000000 Zr
atom_frac 0.7500000000000000 0.2500000000000000 0.0000000000000000 Zr
atom_frac 0.2500000000000000 0.7499999999999999 0.0000000000000000 Zr
atom_frac 0.7500000000000000 0.7499999999999999 0.0000000000000000 Zr
atom_frac 0.2500000000000000 0.2500000000000000 0.5000000000000000 Zr
atom_frac 0.7500000000000000 0.2500000000000000 0.5000000000000000 Zr
atom_frac 0.2500000000000000 0.7499999999999999 0.5000000000000000 Zr
atom_frac 0.7500000000000000 0.7499999999999999 0.5000000000000000 Zr
atom_frac 0.0000000000000000 0.0000000000000000 0.2500000000000000 Zr
atom_frac 0.5000000000000000 0.0000000000000000 0.2500000000000000 Zr
atom_frac 0.0000000000000000 0.5000000000000000 0.2500000000000000 Zr
atom_frac 0.5000000000000000 0.5000000000000000 0.2500000000000000 Zr
atom_frac 0.0000000000000000 0.0000000000000000 0.7500000000000001 Zr
atom_frac 0.5000000000000000 0.0000000000000000 0.7500000000000001 Zr
atom_frac 0.0000000000000000 0.5000000000000000 0.7500000000000001 Zr
atom_frac 0.5000000000000000 0.5000000000000000 0.7500000000000001 Zr
atom_frac 0.0000000000000000 0.2500000000000000 0.2500000000000000 Zr
atom_frac 0.5000000000000000 0.2500000000000000 0.2500000000000000 Zr
atom_frac 0.0000000000000000 0.7499999999999999 0.2500000000000000 Zr
atom_frac 0.5000000000000000 0.7499999999999999 0.2500000000000000 Zr
atom_frac 0.0000000000000000 0.2500000000000000 0.7500000000000001 Zr
atom_frac 0.5000000000000000 0.2500000000000000 0.7500000000000001 Zr
atom_frac 0.0000000000000000 0.7499999999999999 0.7500000000000001 Zr
atom_frac 0.5000000000000000 0.7499999999999999 0.7500000000000001 Zr
atom_frac 0.3549005196480000 0.0167345113025000 0.3547768368170000 S
atom_frac 0.8549005196480000 0.0167345113025000 0.3547768368170000 S
atom_frac 0.3549005196480000 0.5167345113024999 0.3547768368170000 S
atom_frac 0.8549005196480000 0.5167345113024999 0.3547768368170000 S
atom_frac 0.3549005196480000 0.0167345113025000 0.8547768368170000 S
atom_frac 0.8549005196480000 0.0167345113025000 0.8547768368170000 S
atom_frac 0.3549005196480000 0.5167345113024999 0.8547768368170000 S
atom_frac 0.8549005196480000 0.5167345113024999 0.8547768368170000 S
atom_frac 0.3549005196480000 0.2332654886975000 0.3547768368170000 S
atom_frac 0.8549005196480000 0.2332654886975000 0.3547768368170000 S
atom_frac 0.3549005196480000 0.7332654886975000 0.3547768368170000 S
atom_frac 0.8549005196480000 0.7332654886975000 0.3547768368170000 S
atom_frac 0.3549005196480000 0.2332654886975000 0.8547768368170000 S
atom_frac 0.8549005196480000 0.2332654886975000 0.8547768368170000 S
atom_frac 0.3549005196480000 0.7332654886975000 0.8547768368170000 S
atom_frac 0.8549005196480000 0.7332654886975000 0.8547768368170000 S
atom_frac 0.1450994803520000 0.4832654886975000 0.1452231631830000 S
atom_frac 0.6450994803520000 0.4832654886975000 0.1452231631830000 S
atom_frac 0.1450994803520000 0.9832654886975000 0.1452231631830000 S
atom_frac 0.6450994803520000 0.9832654886975000 0.1452231631830000 S
atom_frac 0.1450994803520000 0.4832654886975000 0.6452231631830001 S
atom_frac 0.6450994803520000 0.4832654886975000 0.6452231631830001 S
atom_frac 0.1450994803520000 0.9832654886975000 0.6452231631830001 S
atom_frac 0.6450994803520000 0.9832654886975000 0.6452231631830001 S
atom_frac 0.1450994803520000 0.2667345113025000 0.1452231631830000 S
atom_frac 0.6450994803520000 0.2667345113025000 0.1452231631830000 S
atom_frac 0.1450994803520000 0.7667345113024999 0.1452231631830000 S
atom_frac 0.6450994803520000 0.7667345113024999 0.1452231631830000 S
atom_frac 0.1450994803520000 0.2667345113025000 0.6452231631830001 S
atom_frac 0.6450994803520000 0.2667345113025000 0.6452231631830001 S
atom_frac 0.1450994803520000 0.7667345113024999 0.6452231631830001 S
atom_frac 0.6450994803520000 0.7667345113024999 0.6452231631830001 S
atom_frac 0.3950994803520000 0.4832654886975000 0.1047768368170000 S
atom_frac 0.8950994803520000 0.4832654886975000 0.1047768368170000 S
atom_frac 0.3950994803520000 0.9832654886975000 0.1047768368170000 S
atom_frac 0.8950994803520000 0.9832654886975000 0.1047768368170000 S
atom_frac 0.3950994803520000 0.4832654886975000 0.6047768368170000 S
atom_frac 0.8950994803520000 0.4832654886975000 0.6047768368170000 S
atom_frac 0.3950994803520000 0.9832654886975000 0.6047768368170000 S
atom_frac 0.8950994803520000 0.9832654886975000 0.6047768368170000 S
atom_frac 0.3950994803520000 0.2667345113025000 0.1047768368170000 S
atom_frac 0.8950994803520000 0.2667345113025000 0.1047768368170000 S
atom_frac 0.3950994803520000 0.7667345113024999 0.1047768368170000 S
atom_frac 0.8950994803520000 0.7667345113024999 0.1047768368170000 S
atom_frac 0.3950994803520000 0.2667345113025000 0.6047768368170000 S
atom_frac 0.8950994803520000 0.2667345113025000 0.6047768368170000 S
atom_frac 0.3950994803520000 0.7667345113024999 0.6047768368170000 S
atom_frac 0.8950994803520000 0.7667345113024999 0.6047768368170000 S
atom_frac 0.1049005196480000 0.0167345113025000 0.3952231631830000 S
atom_frac 0.6049005196480001 0.0167345113025000 0.3952231631830000 S
atom_frac 0.1049005196480000 0.5167345113024999 0.3952231631830000 S
atom_frac 0.6049005196480001 0.5167345113024999 0.3952231631830000 S
atom_frac 0.1049005196480000 0.0167345113025000 0.8952231631830000 S
atom_frac 0.6049005196480001 0.0167345113025000 0.8952231631830000 S
atom_frac 0.1049005196480000 0.5167345113024999 0.8952231631830000 S
atom_frac 0.6049005196480001 0.5167345113024999 0.8952231631830000 S
atom_frac 0.1049005196480000 0.2332654886975000 0.3952231631830000 S
atom_frac 0.6049005196480001 0.2332654886975000 0.3952231631830000 S
atom_frac 0.1049005196480000 0.7332654886975000 0.3952231631830000 S
atom_frac 0.6049005196480001 0.7332654886975000 0.3952231631830000 S
atom_frac 0.1049005196480000 0.2332654886975000 0.8952231631830000 S
atom_frac 0.6049005196480001 0.2332654886975000 0.8952231631830000 S
atom_frac 0.1049005196480000 0.7332654886975000 0.8952231631830000 S
atom_frac 0.6049005196480001 0.7332654886975000 0.8952231631830000 S
atom_frac 0.2472797371505000 0.3749999999999999 0.4674323438009216 S
atom_frac 0.7472797371505000 0.3749999999999999 0.4681517745480001 S
atom_frac 0.2472797371505000 0.8750000000000000 0.4681517745480001 S
atom_frac 0.7472797371505000 0.8750000000000000 0.4681517745480001 S
atom_frac 0.2472797371505000 0.3749999999999999 0.9681517745480001 S
atom_frac 0.7472797371505000 0.3749999999999999 0.9681517745480001 S
atom_frac 0.2472797371505000 0.8750000000000000 0.9681517745480001 S
atom_frac 0.7472797371505000 0.8750000000000000 0.9681517745480001 S
atom_frac 0.2527202628495000 0.1250000000000000 0.0318482254520000 S
atom_frac 0.7527202628495000 0.1250000000000000 0.0318482254520000 S
atom_frac 0.2527202628495000 0.6250000000000000 0.0318482254520000 S
atom_frac 0.7527202628495000 0.6250000000000000 0.0318482254520000 S
atom_frac 0.2527202628495000 0.1250000000000000 0.5318482254520001 S
atom_frac 0.7527202628495000 0.1250000000000000 0.5318482254520001 S
atom_frac 0.2527202628495000 0.6250000000000000 0.5318482254520001 S
atom_frac 0.7527202628495000 0.6250000000000000 0.5318482254520001 S
atom_frac 0.9972797371505001 0.3749999999999999 0.2818482254520000 S
atom_frac 0.4972797371505000 0.3749999999999999 0.2818482254520000 S
atom_frac 0.9972797371505001 0.8750000000000000 0.2818482254520000 S
atom_frac 0.4972797371505000 0.8750000000000000 0.2818482254520000 S
atom_frac 0.9972797371505001 0.3749999999999999 0.7818482254520001 S
atom_frac 0.4972797371505000 0.3749999999999999 0.7818482254520001 S
atom_frac 0.9972797371505001 0.8750000000000000 0.7818482254520001 S
atom_frac 0.4972797371505000 0.8750000000000000 0.7818482254520001 S
atom_frac 0.0027202628495000 0.1250000000000000 0.2181517745480000 S
atom_frac 0.5027202628495000 0.1250000000000000 0.2181517745480000 S
atom_frac 0.0027202628495000 0.6250000000000000 0.2181517745480000 S
atom_frac 0.5027202628495000 0.6250000000000000 0.2181517745480000 S
atom_frac 0.0027202628495000 0.1250000000000000 0.7181517745479999 S
atom_frac 0.5027202628495000 0.1250000000000000 0.7181517745479999 S
atom_frac 0.0027202628495000 0.6250000000000000 0.7181517745479999 S
atom_frac 0.5027202628495000 0.6250000000000000 0.7181517745479999 S
