#=======================================================
# FHI-aims file: geometry.in.primitive
# Created using the Atomic Simulation Environment (ASE)
# Tue Oct  8 12:28:49 2024

# Additional information:
#  Number of atoms:     10
#=======================================================
lattice_vector -3.4572286329230000 3.4572286329230000 5.0835326989400000 
lattice_vector 3.4572286329230000 -3.4572286329230000 5.0835326989400000 
lattice_vector 3.4572286329230000 3.4572286329230000 -5.0835326989400000 
atom 0.0000000000000006 3.4572286329230000 2.5417663494699996 Ba
atom 3.4572286329229995 0.0000000000000000 2.5417663494699996 Ba
atom 0.0000000000000000 0.0000000000000000 0.0000000000000000 Zr
atom 0.0000000000000004 -0.0000000000000004 5.0835326989399992 Zr
atom -0.0000000000000004 0.0000000000000004 7.6252990484099996 S
atom 0.0000000000000001 -0.0000000000000001 2.5417663494699996 S
atom 1.3208731202594897 2.1363555126635103 5.0835326989399992 S
atom 2.1363555126635103 1.3208731202594906 -0.0000000000000006 S
atom 2.1363555126635103 -1.3208731202594903 5.0835326989400000 S
atom 1.3208731202594901 4.7781017531824901 0.0000000000000002 S
