#=======================================================
# FHI-aims file: geometry.in.supercell
# Created using the Atomic Simulation Environment (ASE)
# Tue Oct  8 12:28:49 2024

# Additional information:
#  Number of atoms:     80
#=======================================================
lattice_vector -6.9144572658460000 6.9144572658460000 10.1670653978800001 
lattice_vector 6.9144572658460000 -6.9144572658460000 10.1670653978800001 
lattice_vector 6.9144572658460000 6.9144572658460000 -10.1670653978800001 
atom 0.0000000000000006 3.4572286329230000 2.5417663494699996 Ba
atom -3.4572286329229995 6.9144572658460000 7.6252990484100014 Ba
atom 3.4572286329230004 0.0000000000000004 7.6252990484099996 Ba
atom -0.0000000000000001 3.4572286329230009 12.7088317473500005 Ba
atom 3.4572286329230000 6.9144572658460000 -2.5417663494700000 Ba
atom 0.0000000000000000 10.3716858987689999 2.5417663494700018 Ba
atom 6.9144572658460000 3.4572286329230000 2.5417663494700000 Ba
atom 3.4572286329229995 6.9144572658460000 7.6252990484100014 Ba
atom 3.4572286329229995 0.0000000000000000 2.5417663494699996 Ba
atom -0.0000000000000002 3.4572286329230000 7.6252990484100005 Ba
atom 6.9144572658460000 -3.4572286329230000 7.6252990484100005 Ba
atom 3.4572286329230004 -0.0000000000000006 12.7088317473500005 Ba
atom 6.9144572658460000 3.4572286329230000 -2.5417663494700009 Ba
atom 3.4572286329230000 6.9144572658460000 2.5417663494700000 Ba
atom 10.3716858987689999 0.0000000000000000 2.5417663494700000 Ba
atom 6.9144572658460000 3.4572286329229995 7.6252990484100014 Ba
atom 0.0000000000000000 0.0000000000000000 0.0000000000000000 Zr
atom -3.4572286329230000 3.4572286329230000 5.0835326989400000 Zr
atom 3.4572286329230000 -3.4572286329230000 5.0835326989400000 Zr
atom 0.0000000000000000 0.0000000000000000 10.1670653978800001 Zr
atom 3.4572286329230000 3.4572286329230000 -5.0835326989400000 Zr
atom 0.0000000000000000 6.9144572658460000 0.0000000000000000 Zr
atom 6.9144572658460000 0.0000000000000000 0.0000000000000000 Zr
atom 3.4572286329230000 3.4572286329230000 5.0835326989400000 Zr
atom 6.9144572658460000 6.9144572658460000 -5.0835326989400009 Zr
atom 3.4572286329230000 10.3716858987689999 0.0000000000000000 Zr
atom 10.3716858987689999 3.4572286329229995 0.0000000000000000 Zr
atom 6.9144572658460000 6.9144572658460000 5.0835326989399992 Zr
atom 3.4572286329230004 3.4572286329229995 -0.0000000000000009 Zr
atom 0.0000000000000000 6.9144572658460000 5.0835326989400000 Zr
atom 6.9144572658460000 -0.0000000000000004 5.0835326989400000 Zr
atom 3.4572286329230000 3.4572286329230000 10.1670653978799983 Zr
atom 6.9144572658460000 6.9144572658460000 -2.5417663494700005 S
atom 3.4572286329229991 10.3716858987690017 2.5417663494700005 S
atom 10.3716858987689999 3.4572286329230000 2.5417663494700005 S
atom 6.9144572658460000 6.9144572658460000 7.6252990484100014 S
atom 3.4572286329229995 3.4572286329230004 2.5417663494699996 S
atom -0.0000000000000009 6.9144572658460008 7.6252990484100005 S
atom 6.9144572658460000 0.0000000000000000 7.6252990484100005 S
atom 3.4572286329229995 3.4572286329230004 12.7088317473500005 S
atom 6.9144572658460000 6.9144572658460000 -7.6252990484100005 S
atom 3.4572286329230004 10.3716858987689999 -2.5417663494699996 S
atom 10.3716858987689999 3.4572286329230000 -2.5417663494700005 S
atom 6.9144572658460000 6.9144572658460000 2.5417663494700005 S
atom 3.4572286329230000 3.4572286329230000 -2.5417663494700005 S
atom 0.0000000000000004 6.9144572658460000 2.5417663494700005 S
atom 6.9144572658460000 0.0000000000000000 2.5417663494699996 S
atom 3.4572286329230004 3.4572286329229995 7.6252990484100005 S
atom 1.3208731202594897 2.1363555126635103 5.0835326989399992 S
atom -2.1363555126635103 5.5935841455865098 10.1670653978799983 S
atom 4.7781017531824901 -1.3208731202594897 10.1670653978800001 S
atom 1.3208731202594897 2.1363555126635103 15.2505980968199975 S
atom 4.7781017531824901 5.5935841455865098 -0.0000000000000004 S
atom 1.3208731202594897 9.0508127785095098 5.0835326989399992 S
atom 8.2353303861054901 2.1363555126635103 5.0835326989400009 S
atom 4.7781017531824901 5.5935841455865098 10.1670653978799983 S
atom 2.1363555126635103 1.3208731202594906 -0.0000000000000006 S
atom -1.3208731202594897 4.7781017531824901 5.0835326989400000 S
atom 5.5935841455865098 -2.1363555126635090 5.0835326989399992 S
atom 2.1363555126635099 1.3208731202594908 10.1670653978800001 S
atom 5.5935841455865098 4.7781017531824901 -5.0835326989400000 S
atom 2.1363555126635099 8.2353303861054901 0.0000000000000004 S
atom 9.0508127785095098 1.3208731202594906 -0.0000000000000004 S
atom 5.5935841455865098 4.7781017531824901 5.0835326989400009 S
atom 2.1363555126635103 -1.3208731202594903 5.0835326989400000 S
atom -1.3208731202594901 2.1363555126635099 10.1670653978799983 S
atom 5.5935841455865098 -4.7781017531824901 10.1670653978799983 S
atom 2.1363555126635094 -1.3208731202594897 15.2505980968199992 S
atom 5.5935841455865098 2.1363555126635094 -0.0000000000000002 S
atom 2.1363555126635099 5.5935841455865098 5.0835326989399992 S
atom 9.0508127785095098 -1.3208731202594901 5.0835326989399992 S
atom 5.5935841455865090 2.1363555126635103 10.1670653978800001 S
atom 1.3208731202594901 4.7781017531824901 0.0000000000000002 S
atom -2.1363555126635099 8.2353303861054901 5.0835326989400009 S
atom 4.7781017531824910 1.3208731202594897 5.0835326989400009 S
atom 1.3208731202594906 4.7781017531824901 10.1670653978800001 S
atom 4.7781017531824901 8.2353303861054901 -5.0835326989400000 S
atom 1.3208731202594901 11.6925590190284900 0.0000000000000011 S
atom 8.2353303861054901 4.7781017531824901 0.0000000000000011 S
atom 4.7781017531824910 8.2353303861054901 5.0835326989400000 S
