#=======================================================
# FHI-aims file: geometry.in
# Created using the Atomic Simulation Environment (ASE)
# Mon May 20 17:49:15 2024
#=======================================================
lattice_vector 7.0729953411670001 0.0000000000000000 0.0000000000000000 
lattice_vector 0.0000000000000000 9.9271370448089993 0.0000000000000000 
lattice_vector 0.0000000000000000 0.0000000000000000 6.9499392683789996 
atom_frac 0.0505850122330000 0.7482339180693882 0.0111641606950000 Ba
atom_frac 0.9494149877670000 0.2482339180693884 0.9888358393050001 Ba
atom_frac 0.5505850122330007 0.7482339180693883 0.4888358393050006 Ba
atom_frac 0.4494149877670007 0.2482339180693884 0.5111641606949995 Ba
atom_frac 0.4969562019649870 0.0050659120597445 0.0022037579999090 Zr
atom_frac 0.5030437980350130 0.5050659120597445 0.9977962420000910 Zr
atom_frac 0.9969562019649870 0.0050659120597445 0.4977962420000910 Zr
atom_frac 0.0030437980350129 0.5050659120597445 0.5022037579999091 Zr
atom_frac 0.7093526446940014 0.0306748794126638 0.7105351912251696 S
atom_frac 0.7102494338979977 0.4637368342026634 0.7085721560428296 S
atom_frac 0.2897505661020021 0.9637368342026634 0.2914278439571705 S
atom_frac 0.2906473553059985 0.5306748794126633 0.2894648087748306 S
atom_frac 0.7897505661020021 0.9637368342026634 0.2085721560428294 S
atom_frac 0.7906473553059986 0.5306748794126633 0.2105351912251695 S
atom_frac 0.2093526446940014 0.0306748794126638 0.7894648087748305 S
atom_frac 0.2102494338979978 0.4637368342026634 0.7914278439571707 S
atom_frac 0.4945594743009995 0.7494234821130762 0.9363035490960007 S
atom_frac 0.5054405256990006 0.2494234821130763 0.0636964509040001 S
atom_frac 0.9945594743010000 0.7494234821130762 0.5636964509039993 S
atom_frac 0.0054405256990000 0.2494234821130763 0.4363035490960008 S
