#=======================================================
# FHI-aims file: geometry.in
# Created using the Atomic Simulation Environment (ASE)
# Mon May 20 17:49:17 2024
#=======================================================
lattice_vector 7.0729953411670001 0.0000000000000000 0.0000000000000000 
lattice_vector 0.0000000000000000 9.9271370448089993 0.0000000000000000 
lattice_vector 0.0000000000000000 0.0000000000000000 6.9499392683789996 
atom_frac 0.0505850122330000 0.7394035084163304 0.0111641606950001 Ba
atom_frac 0.9494149877669998 0.2394035084163305 0.9888358393050000 Ba
atom_frac 0.5505850122330006 0.7394035084163304 0.4888358393050006 Ba
atom_frac 0.4494149877670007 0.2394035084163306 0.5111641606949995 Ba
atom_frac 0.4817372117899222 0.0303954723584668 0.0132225479994543 Zr
atom_frac 0.5182627882100777 0.5303954723584668 0.9867774520005460 Zr
atom_frac 0.9817372117899222 0.0303954723584668 0.4867774520005458 Zr
atom_frac 0.0182627882100776 0.5303954723584667 0.5132225479994543 Zr
atom_frac 0.7071106716840105 0.0167041634509829 0.7154427791810198 S
atom_frac 0.7124914069079886 0.4497661182409823 0.7036645680869794 S
atom_frac 0.2875085930920110 0.9497661182409826 0.2963354319130207 S
atom_frac 0.2928893283159894 0.5167041634509824 0.2845572208189803 S
atom_frac 0.7875085930920112 0.9497661182409826 0.2036645680869792 S
atom_frac 0.7928893283159895 0.5167041634509824 0.2154427791810198 S
atom_frac 0.2071106716840105 0.0167041634509829 0.7845572208189803 S
atom_frac 0.2124914069079887 0.4497661182409823 0.7963354319130209 S
atom_frac 0.4945594743009994 0.7465408926784576 0.9363035490960008 S
atom_frac 0.5054405256990006 0.2465408926784577 0.0636964509040001 S
atom_frac 0.9945594743009999 0.7465408926784576 0.5636964509039993 S
atom_frac 0.0054405256990000 0.2465408926784577 0.4363035490960008 S
