#=======================================================
# FHI-aims file: geometry.in
# Created using the Atomic Simulation Environment (ASE)
# Mon May 20 17:49:15 2024
#=======================================================
lattice_vector 7.0729953411670001 0.0000000000000000 0.0000000000000000 
lattice_vector 0.0000000000000000 9.9271370448089993 0.0000000000000000 
lattice_vector 0.0000000000000000 0.0000000000000000 6.9499392683789996 
atom_frac 0.0505850122330000 0.7475274852971436 0.0111641606950000 Ba
atom_frac 0.9494149877670000 0.2475274852971438 0.9888358393050001 Ba
atom_frac 0.5505850122330007 0.7475274852971436 0.4888358393050006 Ba
atom_frac 0.4494149877670007 0.2475274852971438 0.5111641606949995 Ba
atom_frac 0.4957386827509818 0.0070922768836423 0.0030852611998727 Zr
atom_frac 0.5042613172490181 0.5070922768836422 0.9969147388001274 Zr
atom_frac 0.9957386827509819 0.0070922768836422 0.4969147388001274 Zr
atom_frac 0.0042613172490181 0.5070922768836422 0.5030852611998727 Zr
atom_frac 0.7091732868532022 0.0295572221357293 0.7109277982616377 S
atom_frac 0.7104287917387970 0.4626191769257288 0.7081795490063615 S
atom_frac 0.2895712082612029 0.9626191769257291 0.2918204509936386 S
atom_frac 0.2908267131467978 0.5295572221357289 0.2890722017383625 S
atom_frac 0.7895712082612029 0.9626191769257291 0.2081795490063614 S
atom_frac 0.7908267131467979 0.5295572221357289 0.2109277982616375 S
atom_frac 0.2091732868532022 0.0295572221357293 0.7890722017383625 S
atom_frac 0.2104287917387971 0.4626191769257288 0.7918204509936387 S
atom_frac 0.4945594743009995 0.7491928749583067 0.9363035490960007 S
atom_frac 0.5054405256990006 0.2491928749583068 0.0636964509040001 S
atom_frac 0.9945594743010000 0.7491928749583067 0.5636964509039993 S
atom_frac 0.0054405256990000 0.2491928749583068 0.4363035490960008 S
