#=======================================================
# FHI-aims file: geometry.in
# Created using the Atomic Simulation Environment (ASE)
# Mon May 20 17:49:16 2024
#=======================================================
lattice_vector 7.0729953411670001 0.0000000000000000 0.0000000000000000 
lattice_vector 0.0000000000000000 9.9271370448089993 0.0000000000000000 
lattice_vector 0.0000000000000000 0.0000000000000000 6.9499392683789996 
atom_frac 0.0505850122330000 0.7411695903469420 0.0111641606950001 Ba
atom_frac 0.9494149877670000 0.2411695903469421 0.9888358393050001 Ba
atom_frac 0.5505850122330006 0.7411695903469421 0.4888358393050006 Ba
atom_frac 0.4494149877670007 0.2411695903469422 0.5111641606949995 Ba
atom_frac 0.4847810098249352 0.0253295602987223 0.0110187899995452 Zr
atom_frac 0.5152189901750647 0.5253295602987224 0.9889812100004549 Zr
atom_frac 0.9847810098249351 0.0253295602987223 0.4889812100004549 Zr
atom_frac 0.0152189901750647 0.5253295602987222 0.5110187899995453 Zr
atom_frac 0.7075590662860087 0.0194983066433191 0.7144612615898498 S
atom_frac 0.7120430123059903 0.4525602614333187 0.7046460856781493 S
atom_frac 0.2879569876940093 0.9525602614333187 0.2953539143218507 S
atom_frac 0.2924409337139912 0.5194983066433185 0.2855387384101504 S
atom_frac 0.7879569876940093 0.9525602614333187 0.2046460856781493 S
atom_frac 0.7924409337139913 0.5194983066433185 0.2144612615898497 S
atom_frac 0.2075590662860087 0.0194983066433190 0.7855387384101503 S
atom_frac 0.2120430123059905 0.4525602614333187 0.7953539143218509 S
atom_frac 0.4945594743009994 0.7471174105653813 0.9363035490960008 S
atom_frac 0.5054405256990006 0.2471174105653814 0.0636964509040001 S
atom_frac 0.9945594743009999 0.7471174105653813 0.5636964509039993 S
atom_frac 0.0054405256990000 0.2471174105653814 0.4363035490960008 S
