#=======================================================
# FHI-aims file: geometry.in
# Created using the Atomic Simulation Environment (ASE)
# Mon May 20 17:49:17 2024
#=======================================================
lattice_vector 7.0729953411670001 0.0000000000000000 0.0000000000000000 
lattice_vector 0.0000000000000000 9.9271370448089993 0.0000000000000000 
lattice_vector 0.0000000000000000 0.0000000000000000 6.9499392683789996 
atom_frac 0.0505850122330000 0.7401099411885750 0.0111641606950001 Ba
atom_frac 0.9494149877669998 0.2401099411885752 0.9888358393050000 Ba
atom_frac 0.5505850122330006 0.7401099411885750 0.4888358393050006 Ba
atom_frac 0.4494149877670007 0.2401099411885752 0.5111641606949995 Ba
atom_frac 0.4829547310039274 0.0283691075345690 0.0123410447994907 Zr
atom_frac 0.5170452689960725 0.5283691075345690 0.9876589552005095 Zr
atom_frac 0.9829547310039274 0.0283691075345690 0.4876589552005094 Zr
atom_frac 0.0170452689960724 0.5283691075345690 0.5123410447994907 Zr
atom_frac 0.7072900295248098 0.0178218207279174 0.7150501721445518 S
atom_frac 0.7123120490671893 0.4508837755179170 0.7040571751234472 S
atom_frac 0.2876879509328104 0.9508837755179170 0.2959428248765527 S
atom_frac 0.2927099704751901 0.5178218207279168 0.2849498278554484 S
atom_frac 0.7876879509328104 0.9508837755179170 0.2040571751234473 S
atom_frac 0.7927099704751902 0.5178218207279168 0.2150501721445517 S
atom_frac 0.2072900295248098 0.0178218207279173 0.7849498278554483 S
atom_frac 0.2123120490671894 0.4508837755179170 0.7959428248765529 S
atom_frac 0.4945594743009994 0.7467714998332270 0.9363035490960008 S
atom_frac 0.5054405256990006 0.2467714998332272 0.0636964509040001 S
atom_frac 0.9945594743009999 0.7467714998332270 0.5636964509039993 S
atom_frac 0.0054405256990000 0.2467714998332272 0.4363035490960008 S
