#=======================================================
# FHI-aims file: geometry.in
# Created using the Atomic Simulation Environment (ASE)
# Mon May 20 17:49:13 2024
#=======================================================
lattice_vector 7.0729953411670001 0.0000000000000000 0.0000000000000000 
lattice_vector 0.0000000000000000 9.9271370448089993 0.0000000000000000 
lattice_vector 0.0000000000000000 0.0000000000000000 6.9499392683789996 
atom_frac 0.0505850122330001 0.7627157899004032 0.0111641606949999 Ba
atom_frac 0.9494149877670001 0.2627157899004033 0.9888358393050002 Ba
atom_frac 0.5505850122330009 0.7627157899004031 0.4888358393050005 Ba
atom_frac 0.4494149877670007 0.2627157899004033 0.5111641606949995 Ba
atom_frac 0.5219153458520933 0.9635254331698399 0.9841329424006549 Zr
atom_frac 0.4780846541479068 0.4635254331698398 0.0158670575993449 Zr
atom_frac 0.0219153458520934 0.9635254331698399 0.5158670575993450 Zr
atom_frac 0.9780846541479069 0.4635254331698399 0.4841329424006548 Zr
atom_frac 0.7130294804303866 0.0535868535898205 0.7024867469775752 S
atom_frac 0.7065725981616129 0.4866488083798201 0.7166206002904238 S
atom_frac 0.2934274018383874 0.9866488083798202 0.2833793997095763 S
atom_frac 0.2869705195696136 0.5535868535898201 0.2975132530224248 S
atom_frac 0.7934274018383874 0.9866488083798202 0.2166206002904237 S
atom_frac 0.7869705195696135 0.5535868535898201 0.2024867469775752 S
atom_frac 0.2130294804303865 0.0535868535898205 0.7975132530224250 S
atom_frac 0.2065725981616127 0.4866488083798201 0.7833793997095764 S
atom_frac 0.4945594743009996 0.7541509287858505 0.9363035490960006 S
atom_frac 0.5054405256990007 0.2541509287858508 0.0636964509040000 S
atom_frac 0.9945594743010001 0.7541509287858505 0.5636964509039992 S
atom_frac 0.0054405256990000 0.2541509287858508 0.4363035490960008 S
