#=======================================================
# FHI-aims file: geometry.in
# Created using the Atomic Simulation Environment (ASE)
# Mon May 20 17:49:15 2024
#=======================================================
lattice_vector 7.0729953411670001 0.0000000000000000 0.0000000000000000 
lattice_vector 0.0000000000000000 9.9271370448089993 0.0000000000000000 
lattice_vector 0.0000000000000000 0.0000000000000000 6.9499392683789996 
atom_frac 0.0505850122330000 0.7485871344555106 0.0111641606950000 Ba
atom_frac 0.9494149877670000 0.2485871344555107 0.9888358393050001 Ba
atom_frac 0.5505850122330007 0.7485871344555106 0.4888358393050006 Ba
atom_frac 0.4494149877670007 0.2485871344555107 0.5111641606949995 Ba
atom_frac 0.4975649615719897 0.0040527296477956 0.0017630063999272 Zr
atom_frac 0.5024350384280103 0.5040527296477956 0.9982369936000728 Zr
atom_frac 0.9975649615719896 0.0040527296477956 0.4982369936000728 Zr
atom_frac 0.0024350384280103 0.5040527296477956 0.5017630063999272 Zr
atom_frac 0.7094423236144010 0.0312337080511310 0.7103388877069357 S
atom_frac 0.7101597549775982 0.4642956628411306 0.7087684595610635 S
atom_frac 0.2898402450224018 0.9642956628411308 0.2912315404389365 S
atom_frac 0.2905576763855989 0.5312337080511306 0.2896611122930645 S
atom_frac 0.7898402450224018 0.9642956628411308 0.2087684595610634 S
atom_frac 0.7905576763855989 0.5312337080511306 0.2103388877069355 S
atom_frac 0.2094423236144011 0.0312337080511310 0.7896611122930646 S
atom_frac 0.2101597549775982 0.4642956628411306 0.7912315404389366 S
atom_frac 0.4945594743009995 0.7495387856904610 0.9363035490960007 S
atom_frac 0.5054405256990006 0.2495387856904610 0.0636964509040001 S
atom_frac 0.9945594743010000 0.7495387856904610 0.5636964509039993 S
atom_frac 0.0054405256990000 0.2495387856904610 0.4363035490960008 S
