#=======================================================
# FHI-aims file: geometry.in
# Created using the Atomic Simulation Environment (ASE)
# Mon May 20 17:49:16 2024
#=======================================================
lattice_vector 7.0729953411670001 0.0000000000000000 0.0000000000000000 
lattice_vector 0.0000000000000000 9.9271370448089993 0.0000000000000000 
lattice_vector 0.0000000000000000 0.0000000000000000 6.9499392683789996 
atom_frac 0.0505850122330000 0.7454081869804097 0.0111641606950001 Ba
atom_frac 0.9494149877670000 0.2454081869804099 0.9888358393050001 Ba
atom_frac 0.5505850122330007 0.7454081869804098 0.4888358393050006 Ba
atom_frac 0.4494149877670007 0.2454081869804099 0.5111641606949995 Ba
atom_frac 0.4920861251089663 0.0131713713553356 0.0057297707997635 Zr
atom_frac 0.5079138748910337 0.5131713713553355 0.9942702292002367 Zr
atom_frac 0.9920861251089663 0.0131713713553356 0.4942702292002366 Zr
atom_frac 0.0079138748910336 0.5131713713553355 0.5057297707997636 Zr
atom_frac 0.7086352133308044 0.0262042503049259 0.7121056193710416 S
atom_frac 0.7109668652611949 0.4592662050949253 0.7070017278969575 S
atom_frac 0.2890331347388050 0.9592662050949256 0.2929982721030426 S
atom_frac 0.2913647866691956 0.5262042503049253 0.2878943806289584 S
atom_frac 0.7890331347388050 0.9592662050949256 0.2070017278969574 S
atom_frac 0.7913647866691956 0.5262042503049253 0.2121056193710416 S
atom_frac 0.2086352133308044 0.0262042503049259 0.7878943806289584 S
atom_frac 0.2109668652611949 0.4592662050949253 0.7929982721030426 S
atom_frac 0.4945594743009995 0.7485010534939982 0.9363035490960007 S
atom_frac 0.5054405256990006 0.2485010534939983 0.0636964509040001 S
atom_frac 0.9945594743010000 0.7485010534939982 0.5636964509039993 S
atom_frac 0.0054405256990000 0.2485010534939983 0.4363035490960008 S
