#=======================================================
# FHI-aims file: geometry.in
# Created using the Atomic Simulation Environment (ASE)
# Mon May 20 17:49:16 2024
#=======================================================
lattice_vector 7.0729953411670001 0.0000000000000000 0.0000000000000000 
lattice_vector 0.0000000000000000 9.9271370448089993 0.0000000000000000 
lattice_vector 0.0000000000000000 0.0000000000000000 6.9499392683789996 
atom_frac 0.0505850122330000 0.7447017542081651 0.0111641606950001 Ba
atom_frac 0.9494149877670000 0.2447017542081653 0.9888358393050001 Ba
atom_frac 0.5505850122330007 0.7447017542081652 0.4888358393050006 Ba
atom_frac 0.4494149877670007 0.2447017542081653 0.5111641606949995 Ba
atom_frac 0.4908686058949611 0.0151977361792334 0.0066112739997271 Zr
atom_frac 0.5091313941050388 0.5151977361792334 0.9933887260002729 Zr
atom_frac 0.9908686058949611 0.0151977361792334 0.4933887260002729 Zr
atom_frac 0.0091313941050388 0.5151977361792334 0.5066112739997272 Zr
atom_frac 0.7084558554900050 0.0250865930279914 0.7124982264075096 S
atom_frac 0.7111462231019940 0.4581485478179910 0.7066091208604894 S
atom_frac 0.2888537768980057 0.9581485478179911 0.2933908791395106 S
atom_frac 0.2915441445099948 0.5250865930279910 0.2875017735924905 S
atom_frac 0.7888537768980058 0.9581485478179911 0.2066091208604894 S
atom_frac 0.7915441445099949 0.5250865930279910 0.2124982264075096 S
atom_frac 0.2084558554900051 0.0250865930279914 0.7875017735924905 S
atom_frac 0.2111462231019941 0.4581485478179910 0.7933908791395107 S
atom_frac 0.4945594743009995 0.7482704463392287 0.9363035490960007 S
atom_frac 0.5054405256990006 0.2482704463392288 0.0636964509040001 S
atom_frac 0.9945594743010000 0.7482704463392287 0.5636964509039993 S
atom_frac 0.0054405256990000 0.2482704463392288 0.4363035490960008 S
