#=======================================================
# FHI-aims file: ./geometry.in
# Created using the Atomic Simulation Environment (ASE)
# Sun Mar 24 13:54:59 2024
#=======================================================
lattice_vector -3.4572286329227118 3.4572286329227118 5.0835326989398881 
lattice_vector 3.4572286329227109 -3.4572286329227122 5.0835326989398881 
lattice_vector 3.4572286329227122 3.4572286329227127 -5.0835326989398881 
atom_frac 0.7500000000000000 0.2500000000000002 0.4999999999999999 Ba
atom_frac 0.2499999999999996 0.7499999999999997 0.4999999999999998 Ba
atom_frac 0.0000000000000000 -0.0000000000000000 0.0000000000000000 Zr
atom_frac 0.4999999999999998 0.5000000000000000 -0.0000000000000000 Zr
atom_frac 0.7500000000000004 0.7500000000000004 0.0000000000000000 S
atom_frac 0.2499999999999999 0.2500000000000000 -0.0000000000000000 S
atom_frac 0.8089693710618989 0.6910306289381013 0.5000000000000001 S
atom_frac 0.1910306289381009 0.3089693710618990 0.5000000000000001 S
atom_frac 0.3089693710618985 0.8089693710618988 0.1179387421237978 S
atom_frac 0.6910306289381012 0.1910306289381014 0.8820612578762023 S
