#=======================================================
# FHI-aims file: ./geometry.in
# Created using the Atomic Simulation Environment (ASE)
# Thu May  9 06:18:54 2024
#=======================================================
lattice_vector -7.0032220426620002 7.0032220426620002 10.2311036971299991 
lattice_vector 7.0032220426620002 -7.0032220426620002 10.2311036971299991 
lattice_vector 7.0032220426620002 7.0032220426620002 -10.2311036971299991 
atom_frac 0.3750000000000002 0.1250000000000001 0.2500000000000001 Ba
atom_frac 0.8750000000000001 0.1250000000000001 0.2500000000000001 Ba
atom_frac 0.3750000000000001 0.6250000000000001 0.2500000000000001 Ba
atom_frac 0.8749999999999999 0.6250000000000002 0.2500000000000000 Ba
atom_frac 0.3750000000000001 0.1250000000000001 0.7500000000000000 Ba
atom_frac 0.8750000000000001 0.1250000000000002 0.7500000000000000 Ba
atom_frac 0.3750000000000001 0.6250000000000001 0.7500000000000000 Ba
atom_frac 0.8749999999999999 0.6250000000000006 0.7500000000000002 Ba
atom_frac 0.1250000000000000 0.3750000000000000 0.2500000000000000 Ba
atom_frac 0.6250000000000000 0.3750000000000000 0.2500000000000000 Ba
atom_frac 0.1250000000000000 0.8750000000000001 0.2500000000000001 Ba
atom_frac 0.6250000000000000 0.8750000000000001 0.2500000000000001 Ba
atom_frac 0.1249999999999999 0.3750000000000001 0.7500000000000000 Ba
atom_frac 0.6249999999999999 0.3749999999999999 0.7500000000000000 Ba
atom_frac 0.1250000000000000 0.8750000000000001 0.7500000000000000 Ba
atom_frac 0.6250000000000000 0.8750000000000001 0.7500000000000000 Ba
atom_frac 0.0000000000000000 -0.0000000000000000 0.0000000000000000 Zr
atom_frac 0.5000000000000000 -0.0000000000000000 0.0000000000000000 Zr
atom_frac 0.0000000000000000 0.5000000000000000 0.0000000000000000 Zr
atom_frac 0.5000000000000000 0.5000000000000000 0.0000000000000000 Zr
atom_frac 0.0000000000000000 -0.0000000000000000 0.5000000000000000 Zr
atom_frac 0.5000000000000000 -0.0000000000000000 0.5000000000000000 Zr
atom_frac 0.0000000000000000 0.5000000000000000 0.5000000000000000 Zr
atom_frac 0.5000000000000000 0.5000000000000000 0.5000000000000000 Zr
atom_frac 0.2500000000000000 0.2500000000000000 0.0000000000000000 Zr
atom_frac 0.7500000000000001 0.2499999999999999 0.0000000000000000 Zr
atom_frac 0.2500000000000000 0.7500000000000000 -0.0000000000000001 Zr
atom_frac 0.7500000000000002 0.7500000000000000 0.0000000000000000 Zr
atom_frac 0.2500000000000000 0.2500000000000000 0.5000000000000000 Zr
atom_frac 0.7500000000000001 0.2499999999999999 0.4999999999999999 Zr
atom_frac 0.2500000000000000 0.7500000000000000 0.5000000000000000 Zr
atom_frac 0.7500000000000002 0.7500000000000000 0.5000000000000000 Zr
atom_frac 0.3750000000000002 0.3750000000000000 0.0000000000000000 S
atom_frac 0.8749999999999999 0.3750000000000002 0.0000000000000000 S
atom_frac 0.3750000000000002 0.8750000000000001 0.0000000000000000 S
atom_frac 0.8750000000000001 0.8750000000000001 0.0000000000000000 S
atom_frac 0.3750000000000001 0.3750000000000000 0.5000000000000000 S
atom_frac 0.8750000000000001 0.3750000000000003 0.5000000000000001 S
atom_frac 0.3750000000000001 0.8750000000000001 0.5000000000000000 S
atom_frac 0.8750000000000001 0.8750000000000001 0.5000000000000000 S
atom_frac 0.1250000000000000 0.1250000000000000 0.0000000000000000 S
atom_frac 0.6250000000000000 0.1250000000000000 0.0000000000000000 S
atom_frac 0.1250000000000001 0.6250000000000000 0.0000000000000000 S
atom_frac 0.6250000000000000 0.6250000000000000 0.0000000000000000 S
atom_frac 0.1249999999999999 0.1249999999999999 0.4999999999999999 S
atom_frac 0.6250000000000000 0.1250000000000000 0.5000000000000000 S
atom_frac 0.1250000000000001 0.6250000000000000 0.5000000000000000 S
atom_frac 0.6250000000000000 0.6250000000000000 0.5000000000000000 S
atom_frac 0.4020727136319998 0.3479272863680001 0.2507022677615475 S
atom_frac 0.9020727136320000 0.3479272863680001 0.2499999999999999 S
atom_frac 0.4020727136320001 0.8479272863680002 0.2499999999999999 S
atom_frac 0.9020727136320000 0.8479272863680002 0.2499999999999999 S
atom_frac 0.4020727136320000 0.3479272863680001 0.7499999999999999 S
atom_frac 0.9020727136320001 0.3479272863680000 0.7499999999999999 S
atom_frac 0.4020727136320000 0.8479272863680001 0.7499999999999999 S
atom_frac 0.9020727136320000 0.8479272863680002 0.7499999999999999 S
atom_frac 0.0979272863680000 0.1520727136320001 0.2500000000000000 S
atom_frac 0.5979272863680001 0.1520727136320000 0.2499999999999999 S
atom_frac 0.0979272863680000 0.6520727136320001 0.2499999999999999 S
atom_frac 0.5979272863680000 0.6520727136320000 0.2500000000000000 S
atom_frac 0.0979272863680000 0.1520727136319999 0.7500000000000000 S
atom_frac 0.5979272863680000 0.1520727136320001 0.7500000000000000 S
atom_frac 0.0979272863680000 0.6520727136320000 0.7500000000000000 S
atom_frac 0.5979272863679999 0.6520727136320001 0.7500000000000000 S
atom_frac 0.1520727136320000 0.4020727136320001 0.0541454272640000 S
atom_frac 0.6520727136319999 0.4020727136320001 0.0541454272640000 S
atom_frac 0.1520727136320002 0.9020727136320000 0.0541454272640001 S
atom_frac 0.6520727136319999 0.9020727136320004 0.0541454272640000 S
atom_frac 0.1520727136320000 0.4020727136320000 0.5541454272640000 S
atom_frac 0.6520727136320000 0.4020727136320000 0.5541454272640000 S
atom_frac 0.1520727136320000 0.9020727136320000 0.5541454272640000 S
atom_frac 0.6520727136320000 0.9020727136320004 0.5541454272640001 S
atom_frac 0.3479272863680001 0.0979272863680000 0.4458545727360000 S
atom_frac 0.8479272863680002 0.0979272863680000 0.4458545727359999 S
atom_frac 0.3479272863680001 0.5979272863680000 0.4458545727360000 S
atom_frac 0.8479272863680002 0.5979272863680001 0.4458545727360000 S
atom_frac 0.3479272863680001 0.0979272863680000 0.9458545727360000 S
atom_frac 0.8479272863680001 0.0979272863680002 0.9458545727359999 S
atom_frac 0.3479272863680002 0.5979272863680001 0.9458545727360002 S
atom_frac 0.8479272863680004 0.5979272863680001 0.9458545727359999 S
