#=======================================================
# FHI-aims file: geometry.in
# Created using the Atomic Simulation Environment (ASE)
# Mon May 20 17:49:13 2024
#=======================================================
lattice_vector 7.0729953411670001 0.0000000000000000 0.0000000000000000 
lattice_vector 0.0000000000000000 9.9271370448089993 0.0000000000000000 
lattice_vector 0.0000000000000000 0.0000000000000000 6.9499392683789996 
atom_frac 0.0505850122330001 0.7560046785640790 0.0111641606949999 Ba
atom_frac 0.9494149877670000 0.2560046785640793 0.9888358393050001 Ba
atom_frac 0.5505850122330008 0.7560046785640790 0.4888358393050006 Ba
atom_frac 0.4494149877670007 0.2560046785640793 0.5111641606949995 Ba
atom_frac 0.5103489133190441 0.9827758989968688 0.9925072228003092 Zr
atom_frac 0.4896510866809560 0.4827758989968687 0.0074927771996907 Zr
atom_frac 0.0103489133190441 0.9827758989968688 0.5074927771996908 Zr
atom_frac 0.9896510866809560 0.4827758989968687 0.4925072228003092 Zr
atom_frac 0.7113255809427934 0.0429691094589430 0.7062165138240214 S
atom_frac 0.7082764976492059 0.4760310642489425 0.7128908334439776 S
atom_frac 0.2917235023507943 0.9760310642489427 0.2871091665560224 S
atom_frac 0.2886744190572066 0.5429691094589425 0.2937834861759787 S
atom_frac 0.7917235023507943 0.9760310642489427 0.2128908334439776 S
atom_frac 0.7886744190572065 0.5429691094589426 0.2062165138240213 S
atom_frac 0.2113255809427934 0.0429691094589430 0.7937834861759787 S
atom_frac 0.2082764976492058 0.4760310642489425 0.7871091665560225 S
atom_frac 0.4945594743009995 0.7519601608155404 0.9363035490960007 S
atom_frac 0.5054405256990007 0.2519601608155406 0.0636964509040000 S
atom_frac 0.9945594743010001 0.7519601608155404 0.5636964509039992 S
atom_frac 0.0054405256990000 0.2519601608155406 0.4363035490960008 S
