#=======================================================
# FHI-aims file: BaZrS3_tilt_62/geometry.in
# Created using the Atomic Simulation Environment (ASE)
# Mon Apr 29 21:48:36 2024
#=======================================================
lattice_vector 7.0729953411670001 -0.0000000000000000 0.0000000000000000 
lattice_vector 0.0000000000000000 9.9271370448089993 0.0000000000000000 
lattice_vector 0.0000000000000000 0.0000000000000000 6.9499392683789996 
atom 0.3577875558568847 7.4453527836067481 0.0775902388126739 Ba
atom -0.3577875558568847 2.4817842612022498 -0.0775902388126739 Ba
atom 3.8942852264403851 7.4453527836067481 3.3973793953768259 Ba
atom 3.1787101147266155 2.4817842612022498 3.5525598730021741 Ba
atom 3.5364976705835001 0.0000000000000000 0.0000000000000000 Zr
atom 3.5364976705835001 4.9635685224044996 0.0000000000000000 Zr
atom 0.0000000000000000 0.0000000000000000 3.4749696341894998 Zr
atom 0.0000000000000000 4.9635685224044996 3.4749696341894998 Zr
atom 5.0204194440961025 0.3322515741556453 4.9313549394115137 S
atom 5.0204194440961025 4.6313169482488545 4.9313549394115137 S
atom 2.0525758970708972 9.5948854706533542 2.0185843289674859 S
atom 2.0525758970708972 5.2958200965601447 2.0185843289674859 S
atom 5.5890735676543972 9.5948854706533542 1.4563853052220135 S
atom 5.5890735676543972 5.2958200965601447 1.4563853052220135 S
atom 1.4839217735126027 0.3322515741556453 5.4935539631569856 S
atom 1.4839217735126027 4.6313169482488545 5.4935539631569856 S
atom 3.4980168576609736 7.4453527836067481 6.5072528029849153 S
atom 3.5749784835060265 2.4817842612022498 0.4426864653940846 S
atom -0.0384808129225263 7.4453527836067481 3.9176560995835845 S
atom 0.0384808129225263 2.4817842612022498 3.0322831687954150 S
