#=======================================================
# FHI-aims file: geometry.in
# Created using the Atomic Simulation Environment (ASE)
# Mon May 20 17:49:12 2024
#=======================================================
lattice_vector 7.0729953411670001 0.0000000000000000 0.0000000000000000 
lattice_vector 0.0000000000000000 9.9271370448089993 0.0000000000000000 
lattice_vector 0.0000000000000000 0.0000000000000000 6.9499392683789996 
atom_frac 0.0505850122330001 0.7630690062865255 0.0111641606949998 Ba
atom_frac 0.9494149877670001 0.2630690062865256 0.9888358393050002 Ba
atom_frac 0.5505850122330009 0.7630690062865254 0.4888358393050005 Ba
atom_frac 0.4494149877670007 0.2630690062865256 0.5111641606949995 Ba
atom_frac 0.5225241054590959 0.9625122507578909 0.9836921908006730 Zr
atom_frac 0.4774758945409042 0.4625122507578909 0.0163078091993267 Zr
atom_frac 0.0225241054590960 0.9625122507578909 0.5163078091993268 Zr
atom_frac 0.9774758945409043 0.4625122507578910 0.4836921908006730 Zr
atom_frac 0.7131191593507862 0.0541456822282877 0.7022904434593412 S
atom_frac 0.7064829192412132 0.4872076370182873 0.7168169038086578 S
atom_frac 0.2935170807587871 0.9872076370182874 0.2831830961913423 S
atom_frac 0.2868808406492139 0.5541456822282872 0.2977095565406587 S
atom_frac 0.7935170807587871 0.9872076370182874 0.2168169038086578 S
atom_frac 0.7868808406492138 0.5541456822282873 0.2022904434593411 S
atom_frac 0.2131191593507862 0.0541456822282878 0.7977095565406590 S
atom_frac 0.2064829192412131 0.4872076370182873 0.7831830961913423 S
atom_frac 0.4945594743009996 0.7542662323632353 0.9363035490960006 S
atom_frac 0.5054405256990007 0.2542662323632355 0.0636964509040000 S
atom_frac 0.9945594743010001 0.7542662323632353 0.5636964509039992 S
atom_frac 0.0054405256990000 0.2542662323632355 0.4363035490960008 S
