#=======================================================
# FHI-aims file: geometry.in
# Created using the Atomic Simulation Environment (ASE)
# Mon May 20 17:49:16 2024
#=======================================================
lattice_vector 7.0729953411670001 0.0000000000000000 0.0000000000000000 
lattice_vector 0.0000000000000000 9.9271370448089993 0.0000000000000000 
lattice_vector 0.0000000000000000 0.0000000000000000 6.9499392683789996 
atom_frac 0.0505850122330000 0.7422292395053089 0.0111641606950001 Ba
atom_frac 0.9494149877670000 0.2422292395053090 0.9888358393050001 Ba
atom_frac 0.5505850122330006 0.7422292395053089 0.4888358393050006 Ba
atom_frac 0.4494149877670007 0.2422292395053091 0.5111641606949995 Ba
atom_frac 0.4866072886459429 0.0222900130628757 0.0096965351995998 Zr
atom_frac 0.5133927113540570 0.5222900130628757 0.9903034648004003 Zr
atom_frac 0.9866072886459430 0.0222900130628756 0.4903034648004003 Zr
atom_frac 0.0133927113540569 0.5222900130628756 0.5096965351995999 Zr
atom_frac 0.7078281030472076 0.0211747925587208 0.7138723510351478 S
atom_frac 0.7117739755447915 0.4542367473487204 0.7052349962328514 S
atom_frac 0.2882260244552082 0.9542367473487204 0.2947650037671486 S
atom_frac 0.2921718969527923 0.5211747925587201 0.2861276489648524 S
atom_frac 0.7882260244552083 0.9542367473487204 0.2052349962328513 S
atom_frac 0.7921718969527923 0.5211747925587201 0.2138723510351477 S
atom_frac 0.2078281030472076 0.0211747925587207 0.7861276489648524 S
atom_frac 0.2117739755447916 0.4542367473487204 0.7947650037671488 S
atom_frac 0.4945594743009995 0.7474633212975355 0.9363035490960007 S
atom_frac 0.5054405256990006 0.2474633212975356 0.0636964509040001 S
atom_frac 0.9945594743009999 0.7474633212975355 0.5636964509039993 S
atom_frac 0.0054405256990000 0.2474633212975356 0.4363035490960008 S
