#=======================================================
# FHI-aims file: geometry.in
# Created using the Atomic Simulation Environment (ASE)
# Mon May 20 17:49:14 2024
#=======================================================
lattice_vector 7.0729953411670001 0.0000000000000000 0.0000000000000000 
lattice_vector 0.0000000000000000 9.9271370448089993 0.0000000000000000 
lattice_vector 0.0000000000000000 0.0000000000000000 6.9499392683789996 
atom_frac 0.0505850122330001 0.7531789474751007 0.0111641606950000 Ba
atom_frac 0.9494149877670000 0.2531789474751008 0.9888358393050001 Ba
atom_frac 0.5505850122330008 0.7531789474751005 0.4888358393050006 Ba
atom_frac 0.4494149877670007 0.2531789474751008 0.5111641606949995 Ba
atom_frac 0.5054788364630234 0.9908813582924599 0.9960332356001638 Zr
atom_frac 0.4945211635369767 0.4908813582924599 0.0039667643998362 Zr
atom_frac 0.0054788364630233 0.9908813582924599 0.5039667643998362 Zr
atom_frac 0.9945211635369767 0.4908813582924599 0.4960332356001637 Zr
atom_frac 0.7106081495795963 0.0384984803512051 0.7077869419698934 S
atom_frac 0.7089939290124029 0.4715604351412047 0.7113204052981057 S
atom_frac 0.2910060709875972 0.9715604351412047 0.2886795947018945 S
atom_frac 0.2893918504204037 0.5384984803512045 0.2922130580301066 S
atom_frac 0.7910060709875971 0.9715604351412047 0.2113204052981055 S
atom_frac 0.7893918504204037 0.5384984803512045 0.2077869419698934 S
atom_frac 0.2106081495795963 0.0384984803512051 0.7922130580301068 S
atom_frac 0.2089939290124029 0.4715604351412047 0.7886795947018945 S
atom_frac 0.4945594743009995 0.7510377321964625 0.9363035490960007 S
atom_frac 0.5054405256990006 0.2510377321964627 0.0636964509040000 S
atom_frac 0.9945594743010000 0.7510377321964625 0.5636964509039993 S
atom_frac 0.0054405256990000 0.2510377321964627 0.4363035490960008 S
