#=======================================================
# FHI-aims file: structures/Glazer_structures/perovskite_139.in
# Created using the Atomic Simulation Environment (ASE)
# Fri Feb  7 11:22:05 2025
#=======================================================
lattice_vector 10.0000000000000000 0.0000000000000000 0.0000000000000000 
lattice_vector 0.0000000000000000 10.0000000000000000 0.0000000000000000 
lattice_vector 0.0000000000000000 0.0000000000000000 10.0000000000000000 
atom 0.0000000000000000 0.0000000000000000 0.0000000000000000 Ba
atom 5.0000000000000000 0.0000000000000000 0.0000000000000000 Ba
atom 0.0000000000000000 5.0000000000000000 0.0000000000000000 Ba
atom 5.0000000000000000 5.0000000000000000 0.0000000000000000 Ba
atom 0.0000000000000000 0.0000000000000000 5.0000000000000000 Ba
atom 5.0000000000000000 0.0000000000000000 5.0000000000000000 Ba
atom 0.0000000000000000 5.0000000000000000 5.0000000000000000 Ba
atom 5.0000000000000000 5.0000000000000000 5.0000000000000000 Ba
atom 2.5000000000000000 2.5000000000000000 2.5000000000000000 Zr
atom 7.5000000000000000 2.5000000000000000 2.5000000000000000 Zr
atom 2.5000000000000000 7.5000000000000000 2.5000000000000000 Zr
atom 7.5000000000000000 7.5000000000000000 2.5000000000000000 Zr
atom 2.5000000000000000 2.5000000000000000 7.5000000000000000 Zr
atom 7.5000000000000000 2.5000000000000000 7.5000000000000000 Zr
atom 2.5000000000000000 7.5000000000000000 7.5000000000000000 Zr
atom 7.5000000000000000 7.5000000000000000 7.5000000000000000 Zr
atom 1.5000000000000000 2.5000000000000000 0.0000000000000000 S
atom 8.5000000000000000 2.5000000000000000 0.0000000000000000 S
atom 1.5000000000000000 7.5000000000000000 0.0000000000000000 S
atom 8.5000000000000000 7.5000000000000000 0.0000000000000000 S
atom 3.5000000000000000 2.5000000000000000 5.0000000000000000 S
atom 6.5000000000000000 2.5000000000000000 5.0000000000000000 S
atom 3.5000000000000000 7.5000000000000000 5.0000000000000000 S
atom 6.5000000000000000 7.5000000000000000 5.0000000000000000 S
atom 3.5000000000000000 0.0000000000000000 2.5000000000000000 S
atom 6.5000000000000000 0.0000000000000000 2.5000000000000000 S
atom 1.5000000000000000 5.0000000000000000 2.5000000000000000 S
atom 8.5000000000000000 5.0000000000000000 2.5000000000000000 S
atom 3.5000000000000000 0.0000000000000000 7.5000000000000000 S
atom 6.5000000000000000 0.0000000000000000 7.5000000000000000 S
atom 1.5000000000000000 5.0000000000000000 7.5000000000000000 S
atom 8.5000000000000000 5.0000000000000000 7.5000000000000000 S
atom 0.0000000000000000 1.5000000000000000 3.5000000000000000 S
atom 5.0000000000000000 3.5000000000000000 1.5000000000000000 S
atom 0.0000000000000000 8.5000000000000000 3.5000000000000000 S
atom 5.0000000000000000 6.5000000000000000 1.5000000000000000 S
atom 0.0000000000000000 1.5000000000000000 6.5000000000000000 S
atom 5.0000000000000000 3.5000000000000000 8.5000000000000000 S
atom 0.0000000000000000 8.5000000000000000 6.5000000000000000 S
atom 5.0000000000000000 6.5000000000000000 8.5000000000000000 S
