#=======================================================
# FHI-aims file: geometry.in
# Created using the Atomic Simulation Environment (ASE)
# Mon May 20 17:49:17 2024
#=======================================================
lattice_vector 7.0729953411670001 0.0000000000000000 0.0000000000000000 
lattice_vector 0.0000000000000000 9.9271370448089993 0.0000000000000000 
lattice_vector 0.0000000000000000 0.0000000000000000 6.9499392683789996 
atom_frac 0.0505850122330000 0.7390502920302080 0.0111641606950001 Ba
atom_frac 0.9494149877669998 0.2390502920302083 0.9888358393050000 Ba
atom_frac 0.5505850122330006 0.7390502920302082 0.4888358393050006 Ba
atom_frac 0.4494149877670007 0.2390502920302083 0.5111641606949995 Ba
atom_frac 0.4811284521829196 0.0314086547704157 0.0136632995994361 Zr
atom_frac 0.5188715478170803 0.5314086547704158 0.9863367004005641 Zr
atom_frac 0.9811284521829196 0.0314086547704157 0.4863367004005641 Zr
atom_frac 0.0188715478170802 0.5314086547704157 0.5136632995994361 Zr
atom_frac 0.7070209927636109 0.0161453348125157 0.7156390826992539 S
atom_frac 0.7125810858283881 0.4492072896025153 0.7034682645687453 S
atom_frac 0.2874189141716114 0.9492072896025153 0.2965317354312547 S
atom_frac 0.2929790072363890 0.5161453348125151 0.2843609173007464 S
atom_frac 0.7874189141716115 0.9492072896025153 0.2034682645687453 S
atom_frac 0.7929790072363891 0.5161453348125151 0.2156390826992538 S
atom_frac 0.2070209927636109 0.0161453348125156 0.7843609173007463 S
atom_frac 0.2125810858283883 0.4492072896025153 0.7965317354312549 S
atom_frac 0.4945594743009994 0.7464255891010728 0.9363035490960008 S
atom_frac 0.5054405256990006 0.2464255891010730 0.0636964509040001 S
atom_frac 0.9945594743009999 0.7464255891010728 0.5636964509039993 S
atom_frac 0.0054405256990000 0.2464255891010730 0.4363035490960008 S
