#=======================================================
# FHI-aims file: geometry.in
# Created using the Atomic Simulation Environment (ASE)
# Mon May 20 17:49:14 2024
#=======================================================
lattice_vector 7.0729953411670001 0.0000000000000000 0.0000000000000000 
lattice_vector 0.0000000000000000 9.9271370448089993 0.0000000000000000 
lattice_vector 0.0000000000000000 0.0000000000000000 6.9499392683789996 
atom_frac 0.0505850122330000 0.7521192983167337 0.0111641606950000 Ba
atom_frac 0.9494149877670000 0.2521192983167339 0.9888358393050001 Ba
atom_frac 0.5505850122330007 0.7521192983167337 0.4888358393050006 Ba
atom_frac 0.4494149877670007 0.2521192983167339 0.5111641606949995 Ba
atom_frac 0.5036525576420156 0.9939209055283066 0.9973554904001093 Zr
atom_frac 0.4963474423579845 0.4939209055283065 0.0026445095998908 Zr
atom_frac 0.0036525576420156 0.9939209055283066 0.5026445095998908 Zr
atom_frac 0.9963474423579844 0.4939209055283065 0.4973554904001091 Zr
atom_frac 0.7103391128183975 0.0368219944358034 0.7083758525245955 S
atom_frac 0.7092629657736018 0.4698839492258030 0.7107314947434036 S
atom_frac 0.2907370342263982 0.9698839492258030 0.2892685052565965 S
atom_frac 0.2896608871816025 0.5368219944358029 0.2916241474754045 S
atom_frac 0.7907370342263982 0.9698839492258030 0.2107314947434035 S
atom_frac 0.7896608871816027 0.5368219944358029 0.2083758525245954 S
atom_frac 0.2103391128183974 0.0368219944358034 0.7916241474754047 S
atom_frac 0.2092629657736018 0.4698839492258030 0.7892685052565965 S
atom_frac 0.4945594743009995 0.7506918214643084 0.9363035490960007 S
atom_frac 0.5054405256990006 0.2506918214643085 0.0636964509040000 S
atom_frac 0.9945594743010000 0.7506918214643084 0.5636964509039993 S
atom_frac 0.0054405256990000 0.2506918214643085 0.4363035490960008 S
