#=======================================================
# FHI-aims file: /mnt/lustre/a2fs-work2/work/e05/e05/prakaya/chalcogenide_perovskites/redo/ternary/tilted_perovskites/HSE_perovskites/BaZrS3_tilt_140/relaxation/geometry.in.next_step
# Created using the Atomic Simulation Environment (ASE)
# Tue Apr 30 03:57:40 2024

# Additional information:
#  Relaxed with BFGS, fmax=1.000 meV/AA
#  nsteps = 0
#  residual force  = 0.007270 meV/AA
#  residual stress = 0.115411 meV/AA
#=======================================================
lattice_vector -3.5016110213310001 3.5016110213310001 5.1155518485649996 
lattice_vector 3.5016110213310001 -3.5016110213310001 5.1155518485649996 
lattice_vector 3.5016110213310001 3.5016110213310001 -5.1155518485649996 
atom_frac 0.7500000000000000 0.2500000000000001 0.5000000000000001 Ba
atom_frac 0.2500000000000000 0.7500000000000000 0.5000000000000000 Ba
atom_frac 0.0000000000000000 -0.0000000000000000 0.0000000000000000 Zr
atom_frac 0.5000000000000000 0.5000000000000000 0.0000000000000000 Zr
atom_frac 0.7500000000000000 0.7500000000000000 -0.0000000000000000 S
atom_frac 0.2500000000000000 0.2500000000000000 0.0000000000000000 S
atom_frac 0.8041454272640000 0.6958545727360000 0.4999999999999999 S
atom_frac 0.1958545727360000 0.3041454272640000 0.4999999999999999 S
atom_frac 0.3041454272639999 0.8041454272640001 0.1082908545280000 S
atom_frac 0.6958545727360002 0.1958545727360000 0.8917091454720000 S
