#=======================================================
# FHI-aims file: BaZrS3_tilt_140/geometry.in
# Created using the Atomic Simulation Environment (ASE)
# Mon Apr 29 21:48:35 2024
#=======================================================
lattice_vector -3.4572286329230000 3.4572286329230000 5.0835326989400000 
lattice_vector 3.4572286329230000 -3.4572286329230000 5.0835326989400000 
lattice_vector 3.4572286329230000 3.4572286329230000 -5.0835326989400000 
atom 0.0000000000000004 3.4572286329229995 2.5417663494699991 Ba
atom 3.4572286329230009 -0.0000000000000007 2.5417663494700000 Ba
atom 0.0000000000000000 0.0000000000000000 0.0000000000000000 Zr
atom 0.0000000000000004 -0.0000000000000004 5.0835326989399992 Zr
atom -0.0000000000000004 0.0000000000000004 7.6252990484099996 S
atom 0.0000000000000000 0.0000000000000000 2.5417663494700000 S
atom 1.3208731202594861 2.1363555126635139 5.0835326989400009 S
atom 2.1363555126635148 1.3208731202594852 0.0000000000000000 S
atom 2.1363555126635148 -1.3208731202594859 5.0835326989399992 S
atom 1.3208731202594863 4.7781017531824848 -0.0000000000000001 S
