#=======================================================
# FHI-aims file: geometry.in
# Created using the Atomic Simulation Environment (ASE)
# Mon May 20 17:49:16 2024
#=======================================================
lattice_vector 7.0729953411670001 0.0000000000000000 0.0000000000000000 
lattice_vector 0.0000000000000000 9.9271370448089993 0.0000000000000000 
lattice_vector 0.0000000000000000 0.0000000000000000 6.9499392683789996 
atom_frac 0.0505850122330000 0.7443485378220428 0.0111641606950001 Ba
atom_frac 0.9494149877670000 0.2443485378220429 0.9888358393050001 Ba
atom_frac 0.5505850122330007 0.7443485378220428 0.4888358393050006 Ba
atom_frac 0.4494149877670007 0.2443485378220430 0.5111641606949995 Ba
atom_frac 0.4902598462879585 0.0162109185911823 0.0070520255997089 Zr
atom_frac 0.5097401537120414 0.5162109185911823 0.9929479744002911 Zr
atom_frac 0.9902598462879585 0.0162109185911823 0.4929479744002911 Zr
atom_frac 0.0097401537120414 0.5162109185911823 0.5070520255997090 Zr
atom_frac 0.7083661765696054 0.0245277643895242 0.7126945299257437 S
atom_frac 0.7112359020223936 0.4575897191795236 0.7064128173422555 S
atom_frac 0.2887640979776061 0.9575897191795238 0.2935871826577446 S
atom_frac 0.2916338234303945 0.5245277643895236 0.2873054700742564 S
atom_frac 0.7887640979776062 0.9575897191795238 0.2064128173422553 S
atom_frac 0.7916338234303946 0.5245277643895236 0.2126945299257436 S
atom_frac 0.2083661765696055 0.0245277643895242 0.7873054700742567 S
atom_frac 0.2112359020223938 0.4575897191795236 0.7935871826577447 S
atom_frac 0.4945594743009995 0.7481551427618439 0.9363035490960007 S
atom_frac 0.5054405256990006 0.2481551427618441 0.0636964509040001 S
atom_frac 0.9945594743009999 0.7481551427618439 0.5636964509039993 S
atom_frac 0.0054405256990000 0.2481551427618441 0.4363035490960008 S
