#=======================================================
# FHI-aims file: geometry.in
# Created using the Atomic Simulation Environment (ASE)
# Mon May 20 17:49:13 2024
#=======================================================
lattice_vector 7.0729953411670001 0.0000000000000000 0.0000000000000000 
lattice_vector 0.0000000000000000 9.9271370448089993 0.0000000000000000 
lattice_vector 0.0000000000000000 0.0000000000000000 6.9499392683789996 
atom_frac 0.0505850122330001 0.7581239768808131 0.0111641606949999 Ba
atom_frac 0.9494149877670000 0.2581239768808131 0.9888358393050001 Ba
atom_frac 0.5505850122330008 0.7581239768808129 0.4888358393050005 Ba
atom_frac 0.4494149877670007 0.2581239768808131 0.5111641606949995 Ba
atom_frac 0.5140014709610596 0.9766968045251755 0.9898627132004185 Zr
atom_frac 0.4859985290389405 0.4766968045251754 0.0101372867995815 Zr
atom_frac 0.0140014709610597 0.9766968045251755 0.5101372867995816 Zr
atom_frac 0.9859985290389405 0.4766968045251755 0.4898627132004184 Zr
atom_frac 0.7118636544651913 0.0463220812897464 0.7050386927146174 S
atom_frac 0.7077384241268081 0.4793840360797460 0.7140686545533818 S
atom_frac 0.2922615758731921 0.9793840360797461 0.2859313454466184 S
atom_frac 0.2881363455348088 0.5463220812897459 0.2949613072853827 S
atom_frac 0.7922615758731922 0.9793840360797461 0.2140686545533816 S
atom_frac 0.7881363455348088 0.5463220812897460 0.2050386927146173 S
atom_frac 0.2118636544651912 0.0463220812897464 0.7949613072853828 S
atom_frac 0.2077384241268080 0.4793840360797460 0.7859313454466184 S
atom_frac 0.4945594743009995 0.7526519822798489 0.9363035490960007 S
atom_frac 0.5054405256990007 0.2526519822798491 0.0636964509040000 S
atom_frac 0.9945594743010001 0.7526519822798489 0.5636964509039992 S
atom_frac 0.0054405256990000 0.2526519822798491 0.4363035490960008 S
