#=======================================================
# FHI-aims file: geometry.in
# Created using the Atomic Simulation Environment (ASE)
# Mon May 20 17:49:16 2024
#=======================================================
lattice_vector 7.0729953411670001 0.0000000000000000 0.0000000000000000 
lattice_vector 0.0000000000000000 9.9271370448089993 0.0000000000000000 
lattice_vector 0.0000000000000000 0.0000000000000000 6.9499392683789996 
atom_frac 0.0505850122330000 0.7457614033665321 0.0111641606950001 Ba
atom_frac 0.9494149877670000 0.2457614033665322 0.9888358393050001 Ba
atom_frac 0.5505850122330007 0.7457614033665321 0.4888358393050006 Ba
atom_frac 0.4494149877670007 0.2457614033665322 0.5111641606949995 Ba
atom_frac 0.4926948847159689 0.0121581889433867 0.0052890191997817 Zr
atom_frac 0.5073051152840311 0.5121581889433867 0.9947109808002184 Zr
atom_frac 0.9926948847159689 0.0121581889433867 0.4947109808002184 Zr
atom_frac 0.0073051152840310 0.5121581889433867 0.5052890191997818 Zr
atom_frac 0.7087248922512039 0.0267630789433931 0.7119093158528076 S
atom_frac 0.7108771863407952 0.4598250337333926 0.7071980314151917 S
atom_frac 0.2891228136592047 0.9598250337333928 0.2928019685848087 S
atom_frac 0.2912751077487959 0.5267630789433927 0.2880906841471926 S
atom_frac 0.7891228136592047 0.9598250337333928 0.2071980314151914 S
atom_frac 0.7912751077487959 0.5267630789433927 0.2119093158528076 S
atom_frac 0.2087248922512040 0.0267630789433931 0.7880906841471924 S
atom_frac 0.2108771863407952 0.4598250337333926 0.7928019685848087 S
atom_frac 0.4945594743009995 0.7486163570713830 0.9363035490960007 S
atom_frac 0.5054405256990006 0.2486163570713831 0.0636964509040001 S
atom_frac 0.9945594743010000 0.7486163570713830 0.5636964509039993 S
atom_frac 0.0054405256990000 0.2486163570713831 0.4363035490960008 S
