#=======================================================
# FHI-aims file: geometry.in.primitive
# Created using the Atomic Simulation Environment (ASE)
# Thu May  9 11:15:52 2024

# Additional information:
#  Number of atoms:     20
#=======================================================
lattice_vector 7.1257885827410004 0.0000000000000000 0.0000000000000000 
lattice_vector -0.0000000000000000 10.0197088334130004 0.0000000000000000 
lattice_vector 0.0000000000000000 0.0000000000000000 7.0421289241259997 
atom 0.3165944948972220 7.5147816250597490 0.0662035152188160 Ba
atom -0.3165944948972220 2.5049272083532501 -0.0662035152188160 Ba
atom 3.8794887862677201 7.5147816250597490 3.4548609468441800 Ba
atom 3.2462997964732798 2.5049272083532501 3.5872679772818201 Ba
atom 3.5628942913705002 0.0000000000000000 0.0000000000000000 Zr
atom 3.5628942913705002 5.0098544167065002 0.0000000000000000 Zr
atom 0.0000000000000000 0.0000000000000000 3.5210644620629998 Zr
atom 0.0000000000000000 5.0098544167065002 3.5210644620629998 Zr
atom 5.0791863804405102 0.3237064552541929 5.0203283631040296 S
atom 5.0791863804405102 4.6861479614523098 5.0203283631040296 S
atom 2.0466022023004999 9.6960023781588092 2.0218005610219705 S
atom 2.0466022023004999 5.3335608719606897 2.0218005610219705 S
atom 5.6094964936709903 9.6960023781588092 1.4992639010410302 S
atom 5.6094964936709903 5.3335608719606897 1.4992639010410302 S
atom 1.5162920890699998 0.3237064552541929 5.5428650230849703 S
atom 1.5162920890699998 4.6861479614523098 5.5428650230849703 S
atom 3.5181829540185001 7.5147816250597490 6.6078165275798408 S
atom 3.6076056287224993 2.5049272083532501 0.4343123965461581 S
atom -0.0447113373520005 7.5147816250597490 3.9553768586091604 S
atom 0.0447113373520005 2.5049272083532501 3.0867520655168401 S
