#=======================================================
# FHI-aims file: geometry.in
# Created using the Atomic Simulation Environment (ASE)
# Mon May 20 17:49:14 2024
#=======================================================
lattice_vector 7.0729953411670001 0.0000000000000000 0.0000000000000000 
lattice_vector 0.0000000000000000 9.9271370448089993 0.0000000000000000 
lattice_vector 0.0000000000000000 0.0000000000000000 6.9499392683789996 
atom_frac 0.0505850122330000 0.7514128655444892 0.0111641606950000 Ba
atom_frac 0.9494149877670000 0.2514128655444893 0.9888358393050001 Ba
atom_frac 0.5505850122330007 0.7514128655444892 0.4888358393050006 Ba
atom_frac 0.4494149877670007 0.2514128655444893 0.5111641606949995 Ba
atom_frac 0.5024350384280103 0.9959472703522044 0.9982369936000728 Zr
atom_frac 0.4975649615719897 0.4959472703522043 0.0017630063999272 Zr
atom_frac 0.0024350384280104 0.9959472703522044 0.5017630063999272 Zr
atom_frac 0.9975649615719897 0.4959472703522043 0.4982369936000727 Zr
atom_frac 0.7101597549775982 0.0357043371588689 0.7087684595610635 S
atom_frac 0.7094423236144010 0.4687662919488684 0.7103388877069357 S
atom_frac 0.2905576763855989 0.9687662919488685 0.2896611122930645 S
atom_frac 0.2898402450224019 0.5357043371588684 0.2912315404389365 S
atom_frac 0.7905576763855989 0.9687662919488685 0.2103388877069355 S
atom_frac 0.7898402450224018 0.5357043371588684 0.2087684595610634 S
atom_frac 0.2101597549775982 0.0357043371588689 0.7912315404389366 S
atom_frac 0.2094423236144011 0.4687662919488684 0.7896611122930646 S
atom_frac 0.4945594743009995 0.7504612143095388 0.9363035490960007 S
atom_frac 0.5054405256990006 0.2504612143095390 0.0636964509040000 S
atom_frac 0.9945594743010000 0.7504612143095388 0.5636964509039993 S
atom_frac 0.0054405256990000 0.2504612143095390 0.4363035490960008 S
